$molecule
0 2
C        1.4217175692    0.5385068562   -0.4110204459
C        0.9053291338   -0.7958663669   -0.0607994231
C       -0.2325418220   -1.4227366804   -0.7351194446
C       -1.2226209048    0.5802911285    0.4577505492
C       -0.6017145919    1.6229390964   -0.1427970940
N        0.7353091957    1.6234531680   -0.5415782554
H        2.5048482481    0.6221081366   -0.5205545165
H        1.6371526905   -1.4659946678    0.3937649041
H       -0.3384815835   -2.4600717530   -1.0274331212
H       -2.1832273324    0.7287192666    0.9441438226
H       -1.0926312584    2.5883237400   -0.2212197322
C       -0.6338317476   -0.7670611864    0.5055614633
H       -0.8993075966   -1.3926107380    1.3593012936
$end

$rem
method                b3lyp
basis                 6-31+g(d,p)
unrestricted          true
symmetry              off
sym_ignore            true
incdft                false
incfock               0
scf_convergence       6
thresh                14
jobtype               sp
scf_guess             read
scf_algorithm         diis
max_scf_cycles        100
stability_analysis    true
max_cis_cycles        100
cis_n_roots           4
$end

