$molecule
0 2
C        1.5242525169    0.5611410695   -0.2076460420
C        0.8977742156   -0.7595770098   -0.0565787793
C       -0.4034370768   -0.9101089009   -0.7270610360
C       -1.0953380242    0.5880613877    0.7501871306
C       -0.6208932951    1.1945920244   -0.4740945528
N        0.7441875091    1.5314265462   -0.5270957016
H        2.5813416712    0.7361930220   -0.0184453737
H        1.5245161516   -1.6358871683    0.0999786775
H       -0.7472227254   -1.7585131259   -1.3159934980
H       -2.0632745165    0.7994277204    1.1904733935
H       -1.2642430577    1.8494491824   -1.0584933318
C       -0.4770274981   -0.7253915717    0.7739489380
H       -0.6458109523   -1.4855619488    1.5311550788
$end

$rem
method                b3lyp
basis                 6-31+g(d,p)
unrestricted          true
symmetry              off
sym_ignore            true
incdft                false
incfock               0
scf_convergence       8
thresh                14
jobtype               rpath
scf_guess             core
scf_guess_mix         5
scf_algorithm         diis
max_scf_cycles        100
rpath_direction       1
rpath_tol_displacement 1000
rpath_max_cycles      50
geom_opt_max_cycles   300
geom_opt_hessian      read
$end

