$molecule
0 2
C        1.4253529299    0.5311732073   -0.4078002194
C        0.9021956275   -0.8015160835   -0.0668909537
C       -0.2550690206   -1.4137481628   -0.7193851965
C       -1.2181975323    0.5829656363    0.4609594769
C       -0.6058218922    1.6100181139   -0.1762382494
N        0.7358883810    1.6124135846   -0.5553904813
H        2.5107357296    0.6211790677   -0.4832368255
H        1.6322749412   -1.4836270331    0.3726348150
H       -0.3886100891   -2.4388616603   -1.0401366684
H       -2.1808235095    0.7372417242    0.9416225748
H       -1.1087301068    2.5645366319   -0.2989828689
C       -0.6242417811   -0.7606624538    0.5331103329
H       -0.8701287579   -1.3758613350    1.4000691733
$end

$rem
method                b3lyp
basis                 6-31+g(d,p)
unrestricted          true
symmetry              off
sym_ignore            true
incdft                false
incfock               0
scf_convergence       8
thresh                14
jobtype               opt
scf_guess             read
scf_algorithm         diis
max_scf_cycles        100
geom_opt_max_cycles   300
$end

