$molecule
0 2
C        1.5227237216    0.5612638217   -0.2105959865
C        0.8947581597   -0.7590830577   -0.0565425624
C       -0.4074602829   -0.9093736739   -0.7265730112
C       -1.0906061341    0.5938093405    0.7554576156
C       -0.6184536340    1.1961592046   -0.4696770917
N        0.7465481530    1.5339415713   -0.5244516038
H        2.5815511194    0.7334544658   -0.0228222930
H        1.5212175144   -1.6361045016    0.0992428788
H       -0.7456139353   -1.7641418090   -1.3108209860
H       -2.0718895966    0.7878950702    1.1747911503
H       -1.2615151950    1.8540600227   -1.0527917270
C       -0.4751967505   -0.7239370299    0.7724063173
H       -0.6412382214   -1.4826921974    1.5327122027
$end

$rem
method                b3lyp
basis                 6-31+g(d,p)
unrestricted          true
symmetry              off
sym_ignore            true
incdft                false
incfock               0
scf_convergence       6
thresh                14
jobtype               sp
scf_guess             read
scf_algorithm         diis
max_scf_cycles        100
stability_analysis    true
max_cis_cycles        100
cis_n_roots           4
$end

