$molecule
0 2
C        1.4731537715    0.4353056382   -0.3602869158
C        0.8918625603   -0.7821237417    0.2299101613
C       -0.7448770212   -0.8167797289    0.1560221046
C       -1.3097990373    0.4472149195   -0.3413355092
C       -0.5450485139    1.5428957205   -0.5655089561
N        0.8476419844    1.5292068480   -0.6388755411
H        2.5257322127    0.3799889962   -0.6446383605
H        1.4575968164   -1.6964639705    0.0419893326
H       -1.2444382515   -1.7415090924   -0.1366772498
H       -2.3796792055    0.4832094823   -0.5291522961
H       -1.0004169054    2.4876161052   -0.8463188491
C        0.0160460007   -0.7871998898    1.4019463193
H        0.0122255892   -1.4813612868    2.2329257594
$end

$rem
method                b3lyp
basis                 6-31+g(d,p)
unrestricted          true
symmetry              off
sym_ignore            true
incdft                false
incfock               0
scf_convergence       8
thresh                14
jobtype               sp
scf_guess             read
scf_algorithm         diis
max_scf_cycles        100
scf_final_print       1
$end

