$molecule
0 2
C        1.4971285170    0.4043364854   -0.4809742454
C        0.8712316258   -0.7559560188    0.2112505077
C       -0.6187106980   -0.9995608313   -0.1311495577
C       -1.2170595501    0.3474188140   -0.1832428558
C       -0.4949594280    1.4949631779   -0.5095156171
N        0.8484660758    1.4841828076   -0.7886685001
H        2.5380022331    0.3247795464   -0.7968982262
H        1.4909982005   -1.6497956151    0.2922985494
H       -1.0436744475   -1.9176221496   -0.5280554443
H       -2.2861128296    0.4260637806    0.0018067004
H       -0.9842069362    2.4645417133   -0.5179223144
C       -0.2091350227   -0.6328351261    1.2132031979
H       -0.3998047394   -0.9921564998    2.2131223519
$end

$rem
method                b3lyp
basis                 6-31g(d)
unrestricted          true
symmetry              off
sym_ignore            true
incdft                false
incfock               0
scf_convergence       6
thresh                14
jobtype               sp
scf_guess             read
scf_algorithm         diis
max_scf_cycles        100
stability_analysis    true
max_cis_cycles        100
cis_n_roots           4
$end

