$molecule
0 2
C        1.4988727852    0.4027011379   -0.4822043105
C        0.8727889660   -0.7570299386    0.2099487682
C       -0.6190436939   -1.0007376105   -0.1343919820
C       -1.2172956904    0.3456322638   -0.1822277373
C       -0.4952244681    1.4964444137   -0.5061769677
N        0.8482546969    1.4844884485   -0.7863441162
H        2.5382650668    0.3234266003   -0.8000560796
H        1.4938218481   -1.6492957101    0.2935762061
H       -1.0448826706   -1.9188835231   -0.5277182865
H       -2.2866398483    0.4245266081   -0.0012611791
H       -0.9850855745    2.4647249097   -0.5130200792
C       -0.2075910391   -0.6348300110    1.2115509524
H       -0.4040773772   -0.9828075043    2.2135793577
$end

$rem
method                b3lyp
basis                 6-31+g(d,p)
unrestricted          true
symmetry              off
sym_ignore            true
incdft                false
incfock               0
scf_convergence       8
thresh                14
jobtype               freq
scf_guess             read
scf_algorithm         diis
max_scf_cycles        100
$end

