$molecule
0 2
C        1.2584822354    0.3164438936    0.0865559111
C        0.5979072681   -1.1278880067   -0.0834035327
C       -0.7730719271   -1.0246632016   -0.5592494543
C       -1.0373097221    0.2330139246    0.2645803952
C       -0.5239470686    1.3852493684   -0.5918747669
N        0.7543391302    1.3950458714   -0.7252482598
H        2.3213406786    0.3044773379    0.3014341402
H        1.2601104007   -1.9865217759   -0.1063006015
H       -1.3029118093   -1.4628244767   -1.3997880263
H       -2.0067212743    0.3585624280    0.7500180765
H       -1.1622689805    2.0660484955   -1.1516420647
C        0.2544347252   -0.1568619970    1.0722710225
H        0.3596163438   -0.3000818616    2.1426471607
$end

$rem
method                b3lyp
basis                 6-31+g(d,p)
unrestricted          true
symmetry              off
sym_ignore            true
incdft                false
incfock               0
scf_convergence       6
thresh                14
jobtype               sp
scf_guess             read
scf_algorithm         diis
max_scf_cycles        100
stability_analysis    true
max_cis_cycles        100
cis_n_roots           4
$end

