$molecule
0 2
C        1.2055780378    0.1841777103    0.2113397718
C        0.7011930802   -1.1125093138   -0.4428680324
C       -0.6428956001   -1.0610442749   -0.4217674658
C       -1.0242747328    0.2665953407    0.2658455417
C       -0.4501532803    1.3805360264   -0.6310356952
N        0.8258924642    1.3493328889   -0.6876338794
H        2.2565302692    0.2187168464    0.4905250332
H        1.3341129080   -1.8907843106   -0.8526404414
H       -1.3505158891   -1.7757713849   -0.8263355910
H       -2.0548076402    0.3720326229    0.6036214505
H       -1.0437269409    2.1080811837   -1.1805589626
C        0.1247833438    0.2787993010    1.2810820808
H        0.1182839802   -0.3181626357    2.1904261903
$end

$rem
method                b3lyp
basis                 6-31+g(d,p)
unrestricted          true
symmetry              off
sym_ignore            true
incdft                false
incfock               0
scf_convergence       8
thresh                14
jobtype               sp
scf_guess             read
scf_algorithm         diis
max_scf_cycles        100
scf_final_print       1
$end

