$molecule
0 2
C        1.2554438109    0.3051387786    0.0798865210
C        0.5870576059   -1.1365746071   -0.0716404274
C       -0.7817308566   -1.0226423988   -0.5568615767
C       -1.0364777726    0.2319706169    0.2756994479
C       -0.5232097290    1.3795709905   -0.5854999817
N        0.7516877554    1.3833881429   -0.7332607110
H        2.3203727176    0.2896940281    0.2881425752
H        1.2443411958   -2.0002469418   -0.0922502474
H       -1.2747494198   -1.3919856153   -1.4530726234
H       -2.0030793770    0.3576662782    0.7685436230
H       -1.1661554240    2.0583343054   -1.1436336877
C        0.2567306395   -0.1634896600    1.0757518213
H        0.3697688540   -0.2908239177    2.1481952668
$end

$rem
method                b3lyp
basis                 6-31g(d)
unrestricted          true
symmetry              off
sym_ignore            true
incdft                false
incfock               0
scf_convergence       8
thresh                14
jobtype               opt
scf_guess             core
scf_guess_mix         5
scf_algorithm         diis
max_scf_cycles        100
geom_opt_max_cycles   300
$end

