$molecule
0 2
C        1.2337114880    0.2595605828    0.1240938987
C        0.6549154102   -1.0925113552   -0.2900080670
C       -0.7204455109   -1.0109851223   -0.5506972298
C       -1.0347389866    0.2518552746    0.2494802445
C       -0.4844000952    1.4034481616   -0.5957588985
N        0.7941929558    1.3920769490   -0.7027898685
H        2.2873580450    0.2619396273    0.3918167132
H        1.2997376977   -1.9592737986   -0.4145374589
H       -1.3712079643   -1.6803914723   -1.0969744713
H       -2.0335754656    0.3580002387    0.6735580910
H       -1.1018691163    2.0999296113   -1.1607862017
C        0.1918672648    0.0038014797    1.1552151879
H        0.2578993102   -0.2953849297    2.1917887057
$end

$rem
method                b3lyp
basis                 6-31+g(d,p)
unrestricted          true
symmetry              off
sym_ignore            true
incdft                false
incfock               0
scf_convergence       6
thresh                14
jobtype               sp
scf_guess             read
scf_algorithm         diis
max_scf_cycles        100
stability_analysis    true
max_cis_cycles        100
cis_n_roots           4
$end

