$molecule
0 2
C        1.6774494264    0.3775130876   -0.2339841621
C        1.1088802591   -0.8466465315   -0.3001627119
C       -0.3293362138   -1.0592492420   -0.0688964740
C       -1.1502957489    0.3402213035    0.0846810444
C       -0.3166385595    1.5351286417   -0.1446096668
N        0.9695577502    1.5797475958   -0.2040895693
H        2.7527683321    0.4949897241   -0.3401038867
H        1.7149907015   -1.7167235257   -0.5405367200
H       -0.7959040089   -1.8958152810   -0.5923514450
H       -2.1699443524    0.4132381868   -0.2986848120
H       -0.8540411968    2.4673425304   -0.3354672669
C       -0.9261495871   -0.6018192192    1.1840394596
H       -1.6813368020   -1.0879272699    1.7901662104
****
C        1.5767525004    0.4212072865   -0.1580425364
C        0.8156910173   -0.8228734704    0.1099907438
C       -0.5524346341   -0.9778871952   -0.5326191729
C       -1.1160168445    0.3308457910   -0.0023203351
C       -0.3589473536    1.5756861467   -0.2756034190
N        0.9707505214    1.5920276923   -0.3457360219
H        2.6637959667    0.4001447288   -0.2053232891
H        1.3921210898   -1.7361844504    0.2480245654
H       -0.9897678102   -1.7670236761   -1.1282713052
H       -2.2010546446    0.4094364865    0.0400074794
H       -0.8859801077    2.5153693575   -0.4296286867
C       -0.4780118944   -0.7118859543    0.9002367123
H       -0.8368978066   -1.2288627429    1.7792852654
$end

$rem
method                b3lyp
basis                 6-31g(d)
unrestricted          true
symmetry              off
sym_ignore            true
incdft                false
incfock               0
scf_convergence       8
thresh                14
jobtype               fsm
scf_guess             core
scf_guess_mix         5
scf_algorithm         diis
max_scf_cycles        100
fsm_nnode             21
fsm_ngrad             6
fsm_mode              2
fsm_opt_mode          2
$end

