$molecule
0 2
C        1.5953338844    0.4067361017   -0.1897943789
C        0.9086320669   -0.8397409949   -0.0649906087
C       -0.5126109957   -0.9956759066   -0.4192020483
C       -1.1069925506    0.3330125840    0.0367531990
C       -0.3433821655    1.5702450987   -0.2598141450
N        0.9595827628    1.5926281024   -0.3386283302
H        2.6835607586    0.4311459777   -0.1477095139
H        1.5213434727   -1.7402807548    0.0056334112
H       -0.9667137477   -1.8040614407   -0.9805469258
H       -2.1949569365    0.4108182279   -0.0421480633
H       -0.8847285105    2.5024367666   -0.4149514210
C       -0.5791075294   -0.6885768809    1.0010056585
H       -1.0904739228   -1.1865992606    1.8157054302
$end

$rem
method                b3lyp
basis                 6-31g(d)
unrestricted          true
symmetry              off
sym_ignore            true
incdft                false
incfock               0
scf_convergence       8
thresh                14
jobtype               ts
scf_guess             read
scf_algorithm         diis
max_scf_cycles        100
geom_opt_max_cycles   500
geom_opt_dmax         100
geom_opt_tol_gradient 10
geom_opt_hessian      read
$end

