$molecule
0 2
C        1.5976126135    0.3885763218   -0.1776276323
C        0.9439492644   -0.8434021693   -0.1762959441
C       -0.5063964974   -0.9918125520   -0.3997981535
C       -1.1186606020    0.3438074447    0.0867999488
C       -0.3439361026    1.5629941426   -0.2745452847
N        0.9495767335    1.5835619161   -0.3633053957
H        2.6663765629    0.4406842054    0.0082255959
H        1.5253027802   -1.7541158617   -0.0499286249
H       -0.9967914044   -1.7321770011   -1.0261342142
H       -2.2025638523    0.4285507254   -0.0013131561
H       -0.8899574730    2.4711514814   -0.5327877135
C       -0.6308340286   -0.6970522058    1.0169265604
H       -1.0041914075   -1.2086788270    1.8910962777
$end

$rem
method                b3lyp
basis                 6-31+g(d,p)
unrestricted          true
symmetry              off
sym_ignore            true
incdft                false
incfock               0
scf_convergence       8
thresh                14
jobtype               freq
scf_guess             read
scf_algorithm         diis
max_scf_cycles        100
$end

