$molecule
0 2
C        1.8310512122    0.2079965210    0.0053954782
C        1.3974190607   -0.8749972867   -0.8913378217
C        0.0755797579   -0.6988485288   -1.0821545156
C       -1.4913412198    0.3023379258    0.6480828423
C       -0.3307138246    0.5318956033   -0.3020080922
N        0.8842871079    1.0078858339    0.3662000963
H        2.8511085508    0.3552371932    0.3547462698
H        2.0328260935   -1.6508881862   -1.3021425853
H       -0.5976517825   -1.3020901514   -1.6798211330
H       -2.4202771356   -0.0242939574    0.1638058102
H       -0.6303253837    1.3218853104   -1.0130829753
C       -1.4568779555    0.4608557232    1.9517631803
H       -2.1450844810    0.3630239999    2.7805534454
$end

$rem
method                b3lyp
basis                 6-31+g(d,p)
unrestricted          true
symmetry              off
sym_ignore            true
incdft                false
incfock               0
scf_convergence       6
thresh                14
jobtype               sp
scf_guess             read
scf_algorithm         diis
max_scf_cycles        100
stability_analysis    true
max_cis_cycles        100
cis_n_roots           4
$end

