$molecule
0 2
C        1.9457968371    0.2041265136   -0.3030232012
C        1.0362185786   -0.7464297007   -0.0179773722
C       -0.3026141770   -0.2357133352   -0.4788990881
C       -1.4271254472   -0.1994111894    0.5398078775
C        0.1035350782    1.1323906098   -0.9974880907
N        1.3679510211    1.3628225911   -0.9070518178
H        3.0147282808    0.1876492081   -0.1304755435
H        1.2064556386   -1.7103218775    0.4428135532
H       -0.6490901255   -0.8259616591   -1.3468551349
H       -2.3859234800    0.1793365003    0.1623181052
H       -0.5865031901    1.8590023861   -1.4194853126
C       -1.3372915821   -0.5746849063    1.7963793936
H       -1.9861374326   -0.6328051409    2.6599366315
$end

$rem
method                b3lyp
basis                 6-31+g(d,p)
unrestricted          true
symmetry              off
sym_ignore            true
incdft                false
incfock               0
scf_convergence       8
thresh                14
jobtype               sp
scf_guess             read
scf_algorithm         diis
max_scf_cycles        100
scf_final_print       1
$end

