$molecule
0 2
C        1.6972694309    0.2877733437   -0.2175751338
C        1.0902557585   -0.9150553610   -0.1129985818
C       -0.3618485362   -1.0474943635    0.0890677221
C       -1.1405378472    0.3809635904   -0.0225078153
C       -0.2578247154    1.4999963778   -0.4004543629
N        1.0304887677    1.4986904788   -0.4080281863
H        2.7791331954    0.3568331895   -0.2964601441
H        1.6744799620   -1.8288840867   -0.1888084605
H       -0.8370377445   -1.9446740523   -0.3118577757
H       -2.1406064937    0.4183947886   -0.4588395517
H       -0.7544626997    2.4045882195   -0.7598849679
C       -0.9923357349   -0.3753114904    1.2230470450
H       -1.7869733424   -0.7358206346    1.8653002126
****
C        1.9300045984    0.2989810105   -0.2532650718
C        1.0571184154   -0.7093750450   -0.0896272707
C       -0.2956505656   -0.2031620811   -0.5145766832
C       -1.4198827828   -0.3053964856    0.5008086786
C        0.0683573926    1.2256207046   -0.8799349734
N        1.3190610657    1.4954935994   -0.7417834182
H        2.9969257526    0.3050380052   -0.0623810104
H        1.2552102745   -1.7108300394    0.2696261564
H       -0.6209095695   -0.7133453738   -1.4395463781
H       -2.3947763125    0.0608953723    0.1527318681
H       -0.6449289726    1.9660560561   -1.2364473365
C       -1.3014397331   -0.7765917240    1.7205838077
H       -1.9490895632   -0.9333839988    2.5738116314
$end

$rem
method                b3lyp
basis                 6-31g(d)
unrestricted          true
symmetry              off
sym_ignore            true
incdft                false
incfock               0
scf_convergence       8
thresh                14
jobtype               fsm
scf_guess             core
scf_guess_mix         5
scf_algorithm         diis
max_scf_cycles        100
fsm_nnode             21
fsm_ngrad             6
fsm_mode              2
fsm_opt_mode          2
$end

