$molecule
0 2
C        1.7881864809    0.2613011065    0.0150435089
C        1.3486153024   -0.9078754872   -0.7643618793
C        0.0518956293   -0.6969844860   -1.0594550782
C       -1.4794855003    0.3921302445    0.5843357106
C       -0.3501702193    0.6139015741   -0.4157242744
N        0.8631165311    1.1355638586    0.2250097658
H        2.7945849138    0.4111977302    0.4003623282
H        1.9576124373   -1.7684260932   -1.0142318016
H       -0.6234984275   -1.3458406350   -1.6038954916
H       -2.4839814673    0.3298386139    0.1482245537
H       -0.6793859690    1.3444327583   -1.1693478117
C       -1.3062823268    0.2054104414    1.8723142503
H       -1.9039825938   -0.0058516682    2.7469586494
$end

$rem
method                b3lyp
basis                 6-31+g(d,p)
unrestricted          true
symmetry              off
sym_ignore            true
incdft                false
incfock               0
scf_convergence       8
thresh                14
jobtype               opt
scf_guess             read
scf_algorithm         diis
max_scf_cycles        100
geom_opt_max_cycles   300
$end

