$molecule
0 2
C        1.8863220678    0.2843706615   -0.1923655552
C        1.0458641621   -0.7650206032   -0.1374119212
C       -0.3064634228   -0.2812678580   -0.5910900815
C       -1.4036539875   -0.3365953854    0.4640002645
C        0.0307800184    1.1655405975   -0.9117045857
N        1.2572079731    1.4759083343   -0.6701705105
H        2.9319715965    0.3249624450    0.0857747999
H        1.2655967278   -1.7761119428    0.1795702014
H       -0.6484748320   -0.8014461881   -1.5003916039
H       -2.4185554305   -0.1320691941    0.1011582028
H       -0.6909554356    1.8945795223   -1.2715652525
C       -1.1978304807   -0.5316317515    1.7477587054
H       -1.7745841646   -0.5524206836    2.6616697713
$end

$rem
method                b3lyp
basis                 6-31+g(d,p)
unrestricted          true
symmetry              off
sym_ignore            true
incdft                false
incfock               0
scf_convergence       8
thresh                14
jobtype               opt
scf_guess             read
scf_algorithm         diis
max_scf_cycles        100
geom_opt_max_cycles   300
$end

