$molecule
0 2
C        1.7688905851    0.2991778373   -0.0192515042
C        1.1575412203   -0.8918493987   -0.4172879622
C       -0.1263394556   -0.5180149341   -0.8803221795
C       -1.3058432277    0.0589573387    0.4392140055
C       -0.1618106675    0.9447461255   -0.7043042405
N        1.0051264986    1.4029508509   -0.1909472624
H        2.7631091029    0.3969380248    0.4082854622
H        1.5495446507   -1.8965828980   -0.3324179653
H       -0.7922114606   -1.1075734751   -1.5003215341
H       -2.2946341619    0.1752079283   -0.0106027073
H       -0.8618603385    1.6254355191   -1.1775627827
C       -1.1121103456   -0.1872009528    1.7035902191
H       -1.6121776112   -0.3333940169    2.6471608868
$end

$rem
method                b3lyp
basis                 6-31g(d)
unrestricted          true
symmetry              off
sym_ignore            true
incdft                false
incfock               0
scf_convergence       6
thresh                14
jobtype               sp
scf_guess             read
scf_algorithm         diis
max_scf_cycles        100
stability_analysis    true
max_cis_cycles        100
cis_n_roots           4
$end

