$molecule
0 2
C        1.7722288458    0.2976433713   -0.0147386633
C        1.1586848669   -0.8933082847   -0.4158920114
C       -0.1212916597   -0.5165081637   -0.8878894298
C       -1.3285078442    0.0585257404    0.4409335657
C       -0.1579699824    0.9462289295   -0.7126140756
N        1.0057306058    1.4007960709   -0.1912909345
H        2.7641191403    0.3959606579    0.4150206778
H        1.5513343731   -1.8973218412   -0.3324670394
H       -0.7876832961   -1.1070291942   -1.5053212678
H       -2.3087253915    0.1758506223   -0.0242459056
H       -0.8590132628    1.6285739779   -1.1797513622
C       -1.1355111028   -0.1835231094    1.7020097546
H       -1.5761705036   -0.3370908279    2.6714791268
$end

$rem
method                b3lyp
basis                 6-31+g(d,p)
unrestricted          true
symmetry              off
sym_ignore            true
incdft                false
incfock               0
scf_convergence       6
thresh                14
jobtype               sp
scf_guess             read
scf_algorithm         diis
max_scf_cycles        100
stability_analysis    true
max_cis_cycles        100
cis_n_roots           4
$end

