$molecule
0 2
C        1.5299432550    0.3207314569   -0.2492136289
C        0.6035286103   -0.9025959185   -0.1118451021
C       -0.4103013280   -0.4479274052   -1.1680764778
C       -0.9933647908    0.4872922764    0.8378133396
C       -0.5668027988    0.9431467886   -0.5674267019
N        0.8835803280    1.3938248232   -0.5007765495
H        2.6110447613    0.3018232013   -0.1283136080
H        1.0583803962   -1.8904705964   -0.1779463258
H       -1.2443001340   -1.0652283302   -1.4947895181
H       -1.7183281797    0.9945191054    1.4633798527
H       -1.1944526739    1.6839278907   -1.0581252484
C       -0.2807650243   -0.6180638706    1.1206762912
H       -0.2781624213   -1.2009794217    2.0346436770
$end

$rem
method                b3lyp
basis                 6-31+g(d,p)
unrestricted          true
symmetry              off
sym_ignore            true
incdft                false
incfock               0
scf_convergence       6
thresh                14
jobtype               sp
scf_guess             read
scf_algorithm         diis
max_scf_cycles        100
stability_analysis    true
max_cis_cycles        100
cis_n_roots           4
$end

