$molecule
0 2
C        1.5541132433    0.2415235810   -0.2638844686
C        0.5854097382   -0.9226157514   -0.0869818864
C       -0.7100649454   -0.3597972546   -0.7781308664
C       -1.1088851381    0.2205773147    0.5997869101
C       -0.4400536824    1.0844860564   -0.5660152606
N        0.9701299836    1.3653741336   -0.4821585222
H        2.6272127396    0.1777765488   -0.0961249413
H        0.9602179414   -1.9270140793   -0.2913735758
H       -1.3320117197   -0.8360200804   -1.5289853752
H       -2.0752665720    0.5388622148    0.9756842447
H       -1.0819433246    1.8535053793   -0.9813204834
C       -0.1286393712   -0.6465084497    1.2342527627
H        0.1797811073   -0.7901496126    2.2652514623
$end

$rem
method                b3lyp
basis                 6-31+g(d,p)
unrestricted          true
symmetry              off
sym_ignore            true
incdft                false
incfock               0
scf_convergence       6
thresh                14
jobtype               sp
scf_guess             read
scf_algorithm         diis
max_scf_cycles        100
stability_analysis    true
max_cis_cycles        100
cis_n_roots           4
$end

