$molecule
0 2
C        1.5435402397    0.2843963131   -0.2906361059
C        0.6026653406   -0.9072820578   -0.0946616364
C       -0.5981292098   -0.4122887101   -0.9314621550
C       -1.0272086996    0.3759569680    0.7110384923
C       -0.4943366483    1.0262558323   -0.5655541072
N        0.9291618445    1.3875417603   -0.5187829549
H        2.6203668650    0.2486447630   -0.1332400754
H        1.0083888810   -1.9097156667   -0.2335115188
H       -1.3015195869   -0.9521954560   -1.5496156710
H       -1.9476712854    0.7261156564    1.1722617581
H       -1.1452301548    1.7636384191   -1.0286174072
C       -0.1524830882   -0.6053433602    1.1981681392
H       -0.0840429321   -1.0603784263    2.1770524412
$end

$rem
method                b3lyp
basis                 6-31+g(d,p)
unrestricted          true
symmetry              off
sym_ignore            true
incdft                false
incfock               0
scf_convergence       6
thresh                14
jobtype               sp
scf_guess             read
scf_algorithm         diis
max_scf_cycles        100
stability_analysis    true
max_cis_cycles        100
cis_n_roots           4
$end

