$molecule
0 2
C        1.5753940496    0.3026002019   -0.3376283870
C        0.6964419381   -0.8837774370   -0.1030823725
C       -0.6579932585   -0.5131472538   -0.7732836692
C       -1.0725664756    0.3577637640    0.5739822870
C       -0.4365494371    1.1756736260   -0.5134848970
N        0.9689809395    1.4159967701   -0.5247814761
H        2.6623446401    0.2552341940   -0.4477773501
H        1.2131780232   -1.8119151227   -0.3813275166
H       -1.1863796843   -1.4248638423   -1.1188534293
H       -2.0198436179    0.7702726045    0.9431619268
H       -0.9912882395    2.0857608403   -0.7672912407
C       -0.2729048906   -0.6630405235    1.1923951228
H       -0.5253124213   -1.1012117864    2.1704102009
$end

$rem
method                b3lyp
basis                 6-31g(d)
unrestricted          true
symmetry              off
sym_ignore            true
incdft                false
incfock               0
scf_convergence       8
thresh                14
jobtype               sp
scf_guess             core
scf_guess_mix         5
scf_algorithm         diis
max_scf_cycles        100
$end

