$molecule
0 2
C        1.6725126043    0.3311012349   -0.3221760064
C        1.0791593678   -0.8827989388   -0.3052612501
C       -0.3519489594   -1.0536759781   -0.0040982587
C       -1.1389924911    0.3670509865    0.1156775950
C       -0.2941946362    1.5325435947   -0.2059126981
N        0.9887006993    1.5477673956   -0.3212230868
H        2.7442856411    0.4217934374   -0.4783777124
H        1.6580595472   -1.7760084662   -0.5270942624
H       -0.8560958251   -1.9047381270   -0.4656933305
H       -2.1728038602    0.4426580130   -0.2271090131
H       -0.8220613849    2.4652665110   -0.4194691207
C       -0.8849654229   -0.5251033444    1.2498676945
H       -1.6216552800   -0.9658563180    1.9108694498
****
C        0.6808441575    0.0151006506    0.2322293608
C        0.9325926551   -1.2727626413   -0.5302896850
C        0.1888426164   -2.3519263029   -0.4693615250
C       -1.2566432953    1.2139634913    0.5413749376
C       -0.3789763041    1.8172198812   -0.4719582098
N        0.7167595671    1.1704635102   -0.6838289036
H        1.5165758779    0.1585056487    0.9395297585
H        1.8194787262   -1.2415461211   -1.1739735551
H        0.1936371962   -3.3416482703   -0.9084886768
H       -2.2182394188    1.6024930099    0.8574805075
H       -0.6014685519    2.7332393121   -1.0183226923
C       -0.6281811555    0.1053449036    0.9718253174
H       -0.9652220709   -0.6084470720    1.7137833658
$end

$rem
method                b3lyp
basis                 6-31g(d)
unrestricted          true
symmetry              off
sym_ignore            true
incdft                false
incfock               0
scf_convergence       8
thresh                14
jobtype               fsm
scf_guess             core
scf_guess_mix         5
scf_algorithm         diis_gdm
max_scf_cycles        300
fsm_nnode             21
fsm_ngrad             6
fsm_mode              2
fsm_opt_mode          2
$end

