$molecule
0 2
C        1.6117029265    0.3679457999   -0.2739782271
C        1.1066156128   -0.9800647095   -0.4560745127
C       -0.0973626003   -1.4215029354    0.0723838830
C       -1.3298079073    0.7430305669    0.3183382509
C       -0.4184394859    1.6077145139   -0.2394568423
N        0.9646162901    1.4854035000   -0.2137744126
H        2.6941716415    0.4580903122   -0.1424579055
H        1.8066880642   -1.7134742515   -0.8473709751
H       -0.2549718912   -2.5003709918    0.0796032727
H       -2.3245968292    1.1443052405    0.5116996819
H       -0.7610406504    2.5732622753   -0.6030734417
C       -1.1373059614   -0.6388582665    0.6076209740
H       -1.9392559154   -1.1571545723    1.1253157975
$end

$rem
method                b3lyp
basis                 6-31+g(d,p)
unrestricted          true
symmetry              off
sym_ignore            true
incdft                false
incfock               0
scf_convergence       8
thresh                14
jobtype               opt
scf_guess             read
scf_algorithm         diis
max_scf_cycles        100
geom_opt_max_cycles   300
$end

