$molecule
0 2
C        0.6794932035    0.0144240190    0.2321469517
C        0.9304567703   -1.2724682887   -0.5330090826
C        0.1911154346   -2.3546395192   -0.4683022134
C       -1.2572294994    1.2143311063    0.5405674660
C       -0.3786992246    1.8184713748   -0.4713333856
N        0.7164711862    1.1710855053   -0.6827314752
H        1.5162539795    0.1560052870    0.9385112812
H        1.8165232724   -1.2402044904   -1.1777485029
H        0.1992773583   -3.3452882561   -0.9050278366
H       -2.2180095764    1.6040645940    0.8573073022
H       -0.5987792004    2.7359365341   -1.0161797555
C       -0.6297044689    0.1053717032    0.9713323152
H       -0.9671692353   -0.6070895693    1.7144669356
$end

$rem
method                b3lyp
basis                 6-31g(d)
unrestricted          true
symmetry              off
sym_ignore            true
incdft                false
incfock               0
scf_convergence       8
thresh                14
jobtype               opt
scf_guess             core
scf_guess_mix         5
scf_algorithm         diis
max_scf_cycles        100
geom_opt_max_cycles   300
$end

