$molecule
0 2
C        1.2252999260    0.2118247311    0.1476943418
C        1.1084614968   -1.0801974352   -0.5944648057
C       -0.0665532204   -1.5211155611   -0.1377660991
C       -1.2333512686    0.7475769432    0.2735999235
C       -0.4107940738    1.6003095736   -0.5161656811
N        0.8788439760    1.3452384833   -0.5554875689
H        1.9153873663    0.3194194505    0.9875928519
H        1.7742906810   -1.4687567518   -1.3591310207
H       -0.5706724419   -2.4651449776   -0.3508299038
H       -2.1966164046    1.0989969259    0.6353599777
H       -0.7941852664    2.4698714214   -1.0456491399
C       -0.6447690665   -0.4609905740    0.7557776670
H       -1.0643284111   -0.8287057516    1.6982449993
$end

$rem
method                b3lyp
basis                 6-31+g(d,p)
unrestricted          true
symmetry              off
sym_ignore            true
incdft                false
incfock               0
scf_convergence       6
thresh                14
jobtype               sp
scf_guess             read
scf_algorithm         diis
max_scf_cycles        100
stability_analysis    true
max_cis_cycles        100
cis_n_roots           4
$end

