$molecule
0 2
C        1.2274652642    0.2141256923    0.1478851555
C        1.1073307814   -1.0783012354   -0.5908401282
C       -0.0655245903   -1.5194142703   -0.1346883936
C       -1.2313776940    0.7455250258    0.2744550692
C       -0.4077062877    1.5959157053   -0.5146135987
N        0.8815308637    1.3470199665   -0.5553640183
H        1.9222449248    0.3231477270    0.9844289086
H        1.7679380223   -1.4647380794   -1.3620682358
H       -0.5698121777   -2.4632902295   -0.3523744344
H       -2.1944878513    1.1000423390    0.6348103928
H       -0.7941127689    2.4635243591   -1.0476506744
C       -0.6479132743   -0.4623301562    0.7578830170
H       -1.0745619194   -0.8329003667    1.6969124824
$end

$rem
method                b3lyp
basis                 6-31+g(d,p)
unrestricted          true
symmetry              off
sym_ignore            true
incdft                false
incfock               0
scf_convergence       8
thresh                14
jobtype               ts
scf_guess             read
scf_algorithm         diis
max_scf_cycles        100
geom_opt_max_cycles   500
geom_opt_dmax         100
geom_opt_tol_gradient 10
geom_opt_hessian      read
$end

