$molecule
0 2
C        1.1549990629    0.1935667456    0.1901721534
C        1.0604395918   -1.1214172388   -0.5835364620
C       -0.1935764292   -1.4805453692   -0.2192340300
C       -1.2689836046    0.7693171305    0.2809451452
C       -0.4493680246    1.6973124098   -0.4456419131
N        0.8371135332    1.4088963709   -0.4724999462
H        2.0771736846    0.2875762474    0.8108946363
H        1.8625955305   -1.6149901888   -1.0889758923
H       -0.7539793843   -2.4242179901   -0.4464601753
H       -2.3413341406    0.8687130283    0.3647688511
H       -0.8109418827    2.5715526464   -0.9711179601
C       -0.5309344231   -0.3981846022    0.7371451837
H       -0.7221902211   -0.7892527125    1.7823159513
$end

$rem
method                b3lyp
basis                 6-31g(d)
unrestricted          true
symmetry              off
sym_ignore            true
incdft                false
incfock               0
scf_convergence       8
thresh                14
jobtype               sp
scf_guess             core
scf_guess_mix         5
scf_algorithm         diis
max_scf_cycles        100
$end

