$molecule
0 2
C        1.2076267962    0.8120801738   -1.6816355089
C       -1.2199747155   -0.4923174217   -0.5538801930
C       -1.4264404055   -1.0948071516    0.7093672428
C       -0.6232100535   -0.3773837501    1.6460982020
C        0.0190535092    0.5984753126    0.9199072976
N       -0.4145213501    0.5694230743   -0.4260649567
H        0.6347741315    1.1700098895   -2.5107483223
H       -1.6965260714   -0.7339998728   -1.4956328242
H       -2.1427726353   -1.8770138428    0.9309664136
H       -0.5383328335   -0.5644637078    2.7079337036
H        0.7469333948    1.3343116258    1.2312479331
C        2.2683823995    0.5003980097   -1.1306603500
H        3.0294496906    0.1733820337   -0.4573350636
$end

$rem
method                b3lyp
basis                 6-31+g(d,p)
unrestricted          true
symmetry              off
sym_ignore            true
incdft                false
incfock               0
scf_convergence       8
thresh                14
jobtype               sp
scf_guess             core
scf_guess_mix         5
scf_algorithm         diis
max_scf_cycles        100
$end

