$molecule
0 2
C        2.2155537537    1.1150398049   -1.8750039387
C       -1.2968693862   -0.5889952483   -0.2350131219
C       -2.0872836055   -1.0526002776    0.9010553695
C       -1.3570033200   -0.7231979277    2.0067383978
C       -0.1548477477   -0.0727308738    1.4950690877
N       -0.1435940383   -0.0050470575    0.1478094870
H        1.4522464396    0.7649736032   -1.2011352911
H       -1.5550945514   -0.6768267834   -1.2847778482
H       -3.0464654688   -1.5502498583    0.8511605727
H       -1.5963526014   -0.8953770460    3.0475700357
H        0.6661404346    0.3273561032    2.0807963162
C        3.0729554270    1.5064003995   -2.6339355960
H        3.8306146647    1.8512551619   -3.3003334708
$end

$rem
method                b3lyp
basis                 6-31+g(d,p)
unrestricted          true
symmetry              off
sym_ignore            true
incdft                false
incfock               0
scf_convergence       8
thresh                14
jobtype               sp
scf_guess             read
scf_algorithm         diis
max_scf_cycles        100
scf_final_print       1
$end

