$molecule
0 2
C        1.7309549290    0.8750281617   -1.9796526017
C       -1.5001720636   -0.4181010313   -0.4224700421
C       -1.5072725327   -1.1723623527    0.8332479097
C       -0.7070032578   -0.4622618593    1.6823121862
C       -0.2462648181    0.6805303159    0.9070162878
N       -0.7560646176    0.6913916981   -0.3485527057
H        0.9163019654    1.2136976453   -2.5785218828
H       -2.0043916999   -0.6900856641   -1.3440898674
H       -2.0501572042   -2.0885998715    1.0233259286
H       -0.4582405844   -0.6795499983    2.7125983348
H        0.4548214868    1.4433789545    1.2293759976
C        2.6097931086    0.4865529220   -1.2468768937
H        3.3621371470    0.1384754557   -0.5781490719
$end

$rem
method                b3lyp
basis                 6-31+g(d,p)
unrestricted          true
symmetry              off
sym_ignore            true
incdft                false
incfock               0
scf_convergence       8
thresh                14
jobtype               opt
scf_guess             read
scf_algorithm         diis
max_scf_cycles        100
geom_opt_max_cycles   300
$end

