$molecule
0 2
C        0.8829147174    0.7002393300   -1.4289989824
C       -1.0692525416   -0.5755694777   -0.5778640801
C       -1.5408371017   -0.9503100396    0.6605556058
C       -0.7043407790   -0.3341093709    1.6408168711
C        0.2580501420    0.3851393189    0.9687238442
N        0.0334799594    0.2412604960   -0.3899815029
H        0.3590254364    0.9811320125   -2.3413730856
H       -1.3934228226   -0.8398005421   -1.5738610076
H       -2.3924909653   -1.5900549632    0.8442878205
H       -0.8115230671   -0.3926751027    2.7147896877
H        1.0486093898    1.0279020009    1.3259538565
C        2.1950558435    0.7875064416   -1.3327561759
H        2.9791736446    0.5774342679   -0.6207292803
$end

$rem
method                b3lyp
basis                 6-31+g(d,p)
unrestricted          true
symmetry              off
sym_ignore            true
incdft                false
incfock               0
scf_convergence       8
thresh                14
jobtype               opt
scf_guess             read
scf_algorithm         diis
max_scf_cycles        100
geom_opt_max_cycles   300
$end

