$molecule
0 2
C        2.2576541234    1.0569036929   -1.8474739515
C       -1.2600449915   -0.5640554463   -0.2531037245
C       -2.0728314938   -1.0625525576    0.8515745175
C       -1.4385772061   -0.6409546384    1.9821717888
C       -0.2638735143    0.0873066155    1.5158647747
N       -0.1803995255    0.1220608733    0.1712480673
H        1.4383020765    0.8479428425   -1.1818177789
H       -1.4508163177   -0.6978185393   -1.3139724514
H       -2.9843070828   -1.6402157607    0.7674973373
H       -1.7227525770   -0.8006980195    3.0140360049
H        0.4914139655    0.5647498646    2.1328547438
C        3.1833518380    1.2692105125   -2.5918526379
H        4.0028807053    1.4581205605   -3.2470266903
$end

$rem
method                b3lyp
basis                 6-31g(d)
unrestricted          true
symmetry              off
sym_ignore            true
incdft                false
incfock               0
scf_convergence       8
thresh                14
jobtype               opt
scf_guess             core
scf_guess_mix         5
scf_algorithm         diis
max_scf_cycles        100
geom_opt_max_cycles   300
$end

