$molecule
0 2
C        1.2483716090    0.3417904151    0.1798459084
C        0.6741668978   -1.0428831529   -0.2404276722
C       -0.6673300102   -0.9026537412   -0.8239893823
C       -1.0495599049    0.2183465473    0.1545745935
C       -0.4960311444    1.4838652168   -0.4861582462
N        0.7849735175    1.5268870835   -0.5117809031
H        2.2821494015    0.3351545634    0.5080963326
H        1.3384978317   -1.8977749160   -0.3040037827
H       -1.3142607339   -1.7226840535   -1.1111572136
H       -2.0623535969    0.2483765045    0.5565025893
H       -1.1035669276    2.2279371494   -0.9963151658
C        0.1708727986   -0.2632089231    1.0143515785
H        0.1940702618   -0.5531526933    2.0604613636
$end

$rem
method                b3lyp
basis                 6-31+g(d,p)
unrestricted          true
symmetry              off
sym_ignore            true
incdft                false
incfock               0
scf_convergence       6
thresh                14
jobtype               sp
scf_guess             read
scf_algorithm         diis
max_scf_cycles        100
stability_analysis    true
max_cis_cycles        100
cis_n_roots           4
$end

