$molecule
0 2
C        1.3742278557    0.4014843027   -0.0610793554
C        0.7640185265   -0.9508681791   -0.2822476319
C       -0.6703146929   -0.9559696448   -0.6888736443
C       -1.0647642511    0.3319883106    0.1074993517
C       -0.4732064868    1.5468368979   -0.4922206483
N        0.8333362027    1.5692151877   -0.5262705666
H        2.3688133974    0.4173022771    0.3731848058
H        1.3793023572   -1.8434813208   -0.2591524987
H       -1.2241890610   -1.8796960569   -0.5232866599
H       -2.0833540749    0.3841562167    0.4859461899
H       -1.0618651204    2.3549328816   -0.9153437227
C       -0.0011358156   -0.4320078700    0.9049676822
H       -0.1626442822   -0.9549218919    1.8454010655
$end

$rem
method                b3lyp
basis                 6-31+g(d,p)
unrestricted          true
symmetry              off
sym_ignore            true
incdft                false
incfock               0
scf_convergence       8
thresh                14
jobtype               sp
scf_guess             read
scf_algorithm         diis
max_scf_cycles        100
scf_final_print       1
$end

