$molecule
0 2
C        1.5360253282    0.4300916143   -0.3801114367
C        0.8437544071   -0.7974397119    0.0798822764
C       -0.5862466520   -1.0274836295   -0.3820258608
C       -1.1170077234    0.3117676513    0.1015896275
C       -0.4276996931    1.5419333912   -0.3564318933
N        0.8835071537    1.5722516612   -0.5869184177
H        2.6090857182    0.4195212083   -0.5610841245
H        1.4550905977   -1.6868571385    0.2237080226
H       -1.0696760219   -1.8716988620   -0.8536588081
H       -2.1913568186    0.3771031146    0.2651805570
H       -0.9909250331    2.4596109741   -0.5150379808
C       -0.3510240979   -0.6406732085    1.0055382051
H       -0.5935271654   -1.0881270641    1.9593698327
****
C        1.2422399493    0.3283039978    0.1566710642
C        0.6188020220   -1.1154327636   -0.1210607696
C       -0.7310645796   -1.0010553686   -0.6565060105
C       -1.0528460772    0.1895122595    0.2441151890
C       -0.5327345617    1.4032272737   -0.5170596057
N        0.7468272647    1.4474523375   -0.6048320560
H        2.2969805758    0.3233545377    0.4119880653
H        1.2988002095   -1.9601987702   -0.1699889899
H       -1.1754432709   -1.3203542939   -1.5962849372
H       -2.0427702117    0.2605054066    0.7001106451
H       -1.1680351359    2.1027516675   -1.0581353313
C        0.2141857041   -0.2302907152    1.0727854620
H        0.2850581112   -0.4277755689    2.1381972745
$end

$rem
method                b3lyp
basis                 6-31g(d)
unrestricted          true
symmetry              off
sym_ignore            true
incdft                false
incfock               0
scf_convergence       8
thresh                14
jobtype               fsm
scf_guess             core
scf_guess_mix         5
scf_algorithm         diis
max_scf_cycles        100
fsm_nnode             21
fsm_ngrad             6
fsm_mode              2
fsm_opt_mode          2
$end

