$molecule
0 2
C        1.4457183755    0.4074814409   -0.1678735598
C        0.7684004651   -0.9396038460   -0.1083388340
C       -0.6406978107   -0.9760371976   -0.5666720868
C       -1.0830414547    0.2911143881    0.1558790080
C       -0.4874861001    1.5135109045   -0.4590688607
N        0.8225658919    1.5314612313   -0.5715288215
H        2.5298982767    0.4459381304   -0.0132147944
H        1.3970986229   -1.8277943252   -0.0187015761
H       -1.2168765575   -1.7814331386   -1.0231411244
H       -2.1289372645    0.3638152003    0.4693697835
H       -1.0756163741    2.3568194292   -0.8138497039
C       -0.0879760195   -0.4616200851    1.0583670079
H       -0.2648254963   -0.9346810211    2.0272979295
$end

$rem
method                b3lyp
basis                 6-31g(d)
unrestricted          true
symmetry              off
sym_ignore            true
incdft                false
incfock               0
scf_convergence       8
thresh                14
jobtype               ts
scf_guess             read
scf_algorithm         diis
max_scf_cycles        100
geom_opt_max_cycles   500
geom_opt_dmax         100
geom_opt_tol_gradient 10
geom_opt_hessian      read
$end

