$molecule
0 2
C        1.6395100777    0.3451609971   -0.3100028192
C       -0.2211531196   -1.2755939720   -0.2424843522
C       -1.5563380943   -1.2410835257    0.0825366577
C       -1.8651038496    0.1019731226    0.4667816471
C       -0.7088529465    0.8399336434    0.3637695704
N        0.3005825054   -0.0014953951   -0.0717043778
H        2.2470402770   -0.4986071579   -0.6470935697
H        0.4093454472   -2.0851422859   -0.5799704535
H       -2.2374661139   -2.0797650654    0.0501634321
H       -2.8276077884    0.4791284675    0.7833983190
H       -0.5058838266    1.8822464275    0.5566785674
C        2.1766395392    1.5419295679   -0.1651284403
H        3.1492878923    1.9913151761   -0.2869441810
$end

$rem
method                b3lyp
basis                 6-31+g(d,p)
unrestricted          true
symmetry              off
sym_ignore            true
incdft                false
incfock               0
scf_convergence       8
thresh                14
jobtype               sp
scf_guess             core
scf_guess_mix         5
scf_algorithm         diis
max_scf_cycles        100
$end

