$molecule
0 2
C        1.6133427618    0.5230156611   -0.2910517094
C        0.0867677226   -1.0392738402    0.7458051823
C       -1.2724949948   -1.1916925341    0.6508852645
C       -1.8233523160    0.0881502932    0.3105264242
C       -0.7747654796    0.9644660393    0.1829016520
N        0.4090474632    0.2835555737    0.4543811125
H        2.5474047227    0.4759545876    0.2725917943
H        0.8760870219   -1.7539167692    0.9290462876
H       -1.8106405248   -2.1207413789    0.7751184692
H       -2.8684051348    0.3287334954    0.1751539892
H       -0.7531318180    2.0220972104   -0.0382554232
C        1.5586421990    0.6785753544   -1.5974754284
H        2.1947548591    0.7743389089   -2.4610988644
$end

$rem
method                b3lyp
basis                 6-31+g(d,p)
unrestricted          true
symmetry              off
sym_ignore            true
incdft                false
incfock               0
scf_convergence       8
thresh                14
jobtype               opt
scf_guess             read
scf_algorithm         diis
max_scf_cycles        100
geom_opt_max_cycles   300
$end

