$molecule
0 2
C        1.1628614809    0.3140366017   -0.0335672126
C        0.5169804464   -1.0228036285    0.2090919102
C       -0.8599300766   -1.0411957904    0.1779154810
C       -1.5633759342    0.1865118697    0.1678571773
C       -0.8329384327    1.3817530794    0.4950910246
N        0.4643430087    1.4629109280    0.5278058468
H        2.2216358766    0.3220924824    0.2965485999
H        1.1190061373   -1.8968895556    0.4322821220
H       -1.4015148711   -1.9793539218    0.2713346972
H       -2.6443347972    0.2170738949    0.0830064048
H       -1.3922230562    2.2723230023    0.7841077510
C        1.2714638955    0.3421676876   -1.5266481047
H        1.9212828036   -0.5253640497   -1.7762969451
$end

$rem
method                b3lyp
basis                 6-31+g(d,p)
unrestricted          true
symmetry              off
sym_ignore            true
incdft                false
incfock               0
scf_convergence       8
thresh                14
jobtype               opt
scf_guess             read
scf_algorithm         diis
max_scf_cycles        100
geom_opt_max_cycles   300
$end

