$molecule
0 2
C        1.5601380436    0.3371451380   -0.5944839082
C        0.0164753850   -1.1657143194    0.6125679642
C       -1.3105454223   -1.1496573351    0.9605560751
C       -1.8657031540    0.0697428026    0.4612278542
C       -0.8590346408    0.7542662969   -0.1735766864
N        0.2981486448    0.0001995742   -0.0825709653
H        2.3172238345   -0.4250597684   -0.3916015609
H        0.7937043972   -1.8955951916    0.7895352642
H       -1.8310894102   -1.9234706538    1.5083370588
H       -2.8901182288    0.4027196057    0.5611058299
H       -0.8462267545    1.7066192793   -0.6820617315
C        1.8669135885    1.4356628466   -1.2555278794
H        2.7501137170    1.8531417250   -1.7135073147
$end

$rem
method                b3lyp
basis                 6-31g(d)
unrestricted          true
symmetry              off
sym_ignore            true
incdft                false
incfock               0
scf_convergence       8
thresh                14
jobtype               opt
scf_guess             core
scf_guess_mix         5
scf_algorithm         diis
max_scf_cycles        100
geom_opt_max_cycles   300
$end

