$molecule
0 2
C        1.2536826845    0.2091140761   -0.1312055995
C        0.4334043103   -0.9904690268    0.4618146580
C       -0.9343261611   -1.0751027621    0.3150455837
C       -1.6306436286    0.1588744695    0.1492426968
C       -0.8238753246    1.2288111844    0.4365433708
N        0.4854759029    0.9772403678    0.8144878109
H        2.2888527114    0.1025273602    0.2240116564
H        1.0349891321   -1.7497053376    0.9525910805
H       -1.4494548886   -2.0227768737    0.4475540971
H       -2.6785481870    0.2461691350   -0.1124552676
H       -1.1483985459    2.2673144702    0.4616689685
C        1.2270958318    0.4597376542   -1.5576902527
H        1.9250026451    0.2215278828   -2.3530800501
$end

$rem
method                b3lyp
basis                 6-31+g(d,p)
unrestricted          true
symmetry              off
sym_ignore            true
incdft                false
incfock               0
scf_convergence       8
thresh                14
jobtype               sp
scf_guess             core
scf_guess_mix         5
scf_algorithm         diis
max_scf_cycles        100
$end

