$molecule
0 2
C        1.4662243113   -0.0214065118   -0.4846542717
C        0.2148397207   -1.1572773826    0.5134859634
C       -1.1387178190   -1.1286635827    0.7252344848
C       -1.7824319724    0.0882527207    0.3356063768
C       -0.8523968556    1.0113060121   -0.0697928592
N        0.4613343870    0.7428897129    0.3280773883
H        2.3516862159   -0.2945626800    0.1171713129
H        0.8646799727   -1.9955811477    0.7945561064
H       -1.6756312825   -1.9505769172    1.2134434629
H       -2.8490714735    0.2873858775    0.4495750109
H       -1.0833506095    2.0095434078   -0.4294360540
C        1.5804865477    0.9717189357   -1.4650934200
H        2.4256053396    1.4702341554   -1.9196447486
$end

$rem
method                b3lyp
basis                 6-31g(d)
unrestricted          true
symmetry              off
sym_ignore            true
incdft                false
incfock               0
scf_convergence       8
thresh                14
jobtype               ts
scf_guess             read
scf_algorithm         diis
max_scf_cycles        100
geom_opt_max_cycles   500
geom_opt_dmax         100
geom_opt_tol_gradient 10
geom_opt_hessian      read
$end

