$molecule
0 2
C        2.5636731014    0.9837525550   -1.4626770075
C       -0.3002502833   -1.1703393763    0.8551944122
C       -1.6458419785   -1.2888227764    1.4067695627
C       -2.3381652478   -0.2261914172    0.9007435852
C       -1.3836107387    0.4913787832    0.0615206148
N       -0.1693516175   -0.0949747082    0.0515078083
H        1.6738818986    0.6226978552   -0.9749848267
H        0.5361101716   -1.8372951414    1.0360792719
H       -1.9962936392   -2.0633939495    2.0755478301
H       -3.3713419866    0.0474641618    1.0690258356
H       -1.5719337150    1.3937110091   -0.5108408481
C        3.5616313030    1.3907552131   -2.0124775136
H        4.4414927320    1.7512577916   -2.4954087250
$end

$rem
method                b3lyp
basis                 6-31+g(d,p)
unrestricted          true
symmetry              off
sym_ignore            true
incdft                false
incfock               0
scf_convergence       6
thresh                14
jobtype               sp
scf_guess             read
scf_algorithm         diis
max_scf_cycles        100
stability_analysis    true
max_cis_cycles        100
cis_n_roots           4
$end

