$molecule
0 2
C        1.3515648765    0.6314612414   -0.8213253580
C       -0.0458246703   -1.1280152311    0.2543876568
C       -1.2657314404   -1.1473013101    0.8840990440
C       -1.7781154400    0.1874457416    0.8744607778
C       -0.8513006032    0.9748044101    0.2392514389
N        0.2130537145    0.1725028377   -0.1424922788
H        1.3227203401    1.7063674855   -1.0187007866
H        0.6684763266   -1.9106510542    0.0463175737
H       -1.7432001299   -2.0207935005    1.3076811067
H       -2.7193862038    0.5245265042    1.2873267263
H       -0.8423165704    2.0328775389    0.0194116316
C        2.3785382621   -0.0986651020   -1.2085288878
H        3.3115215383    0.0754404382   -1.7218886445
****
C        2.8466583730   -0.3121073710   -2.2892377232
C       -0.1891340782    0.0798769719    0.4726827320
C       -1.4693166275   -0.2038390146   -0.1705769152
C       -2.3880430829   -0.1851223836    0.8356520336
C       -1.6230063587    0.1098882753    2.0440734884
N       -0.3081055486    0.2648313488    1.8031164717
H        2.4514160248   -1.0082518795   -2.9944993252
H        0.7774692123    0.1457043626   -0.0181815928
H       -1.6283544252   -0.3856728150   -1.2257574982
H       -3.4565584666   -0.3487593930    0.7785438801
H       -2.0197306199    0.2051028134    3.0507516988
C        3.2992697984    0.4723046389   -1.4936104695
H        3.7074357993    1.1660444456   -0.7929567804
$end

$rem
method                b3lyp
basis                 6-31g(d)
unrestricted          true
symmetry              off
sym_ignore            true
incdft                false
incfock               0
scf_convergence       8
thresh                14
jobtype               fsm
scf_guess             core
scf_guess_mix         5
scf_algorithm         diis
max_scf_cycles        100
fsm_nnode             21
fsm_ngrad             6
fsm_mode              2
fsm_opt_mode          2
$end

