$molecule
0 2
C        2.4722227332    0.7652582724   -0.4558391821
C       -0.4583338743   -1.2924773541   -0.0124886146
C       -1.3660881255   -1.1118900273    1.1194993895
C       -1.7809978075    0.1867976097    1.0417294345
C       -1.1054832850    0.7353408805   -0.1331164356
N       -0.3397611955   -0.1784857641   -0.7572426928
H        2.1903738398    0.7202840861    0.5704752708
H        0.1121908757   -2.1839517774   -0.2539223186
H       -1.6431448052   -1.8677187909    1.8418396796
H       -2.4686808832    0.7161126332    1.6872877038
H       -1.1450211845    1.7607475034   -0.4873835085
C        2.7259204166    0.7929956688   -1.6368727871
H        2.8853938488    0.7954504155   -2.6898603367
$end

$rem
method                b3lyp
basis                 6-31+g(d,p)
unrestricted          true
symmetry              off
sym_ignore            true
incdft                false
incfock               0
scf_convergence       8
thresh                14
jobtype               opt
scf_guess             read
scf_algorithm         diis
max_scf_cycles        100
geom_opt_max_cycles   300
$end

