$molecule
0 2
C        1.6573366290    0.4889498096   -0.4393192176
C       -0.0343933500   -1.1976862064    0.2562454652
C       -1.2843593660   -1.1319918290    0.8323359203
C       -1.7216874467    0.2244852252    0.7495643695
C       -0.7242163005    0.9418697914    0.1258596631
N        0.3028788735    0.0682725216   -0.1951142090
H        2.2327728382    0.7058212996    0.4623028373
H        0.6430578434   -2.0266276582    0.1145481493
H       -1.8251718532   -1.9629429105    1.2634820574
H       -2.6603804483    0.6260361612    1.1050876049
H       -0.6505173110    1.9888351917   -0.1283008777
C        2.1919260591    0.6149785756   -1.6330316977
H        1.9513443836    0.4984633821   -2.6795544692
$end

$rem
method                b3lyp
basis                 6-31+g(d,p)
unrestricted          true
symmetry              off
sym_ignore            true
incdft                false
incfock               0
scf_convergence       8
thresh                14
jobtype               opt
scf_guess             read
scf_algorithm         diis
max_scf_cycles        100
geom_opt_max_cycles   300
$end

