$molecule
0 2
C        4.4483117052    0.6459393816   -3.6514677194
C       -0.8333674815   -0.1425073700    1.1198437923
C       -1.9870916853   -0.9980632637    0.8556235672
C       -3.0320178741   -0.3915008652    1.4865555453
C       -2.4629495500    0.8029127967    2.1048927229
N       -1.1432294501    0.9319978900    1.8704967634
H        4.2132539085    1.2685501607   -4.4850846797
H        0.1831835466   -0.3059070486    0.7744448836
H       -1.9868919112   -1.9133358502    0.2777549023
H       -4.0665057213   -0.7065157366    1.5336664595
H       -2.9977410894    1.5404849824    2.6961110817
C        4.7143998261   -0.0553084007   -2.7084593842
H        4.9506457767   -0.6767466766   -1.8743779348
$end

$rem
method                b3lyp
basis                 6-31g(d)
unrestricted          true
symmetry              off
sym_ignore            true
incdft                false
incfock               0
scf_convergence       8
thresh                14
jobtype               opt
scf_guess             core
scf_guess_mix         5
scf_algorithm         diis
max_scf_cycles        100
geom_opt_max_cycles   300
$end

