$molecule
0 2
C        2.0051621185    0.5073544991   -0.5444426369
C       -0.0996892517   -0.7712076080    0.0655414297
C       -1.1577504030   -1.0634244093    0.9066458936
C       -1.8993093100    0.1267048798    0.9786876914
C       -1.2340044725    1.1028286403    0.1941112242
N       -0.1291613985    0.5400732537   -0.4065803838
H        2.4817947157    0.5052730226    0.4329657871
H        0.6773600005   -1.4115996603   -0.3318980311
H       -1.2943777948   -1.9831544818    1.4530660312
H       -2.8799373799    0.2321927877    1.4374398270
H       -1.6933135363    2.0330683988   -0.1363576309
C        2.3760683497    0.1982447700   -1.6834015247
H        2.9257489149   -0.1778907375   -2.5316720779
$end

$rem
method                b3lyp
basis                 6-31g(d)
unrestricted          true
symmetry              off
sym_ignore            true
incdft                false
incfock               0
scf_convergence       8
thresh                14
jobtype               sp
scf_guess             core
scf_guess_mix         5
scf_algorithm         diis
max_scf_cycles        100
$end

