$molecule
0 2
C        1.9187621108    0.5428250285   -0.5117485323
C       -0.2356565301   -1.2446121241    0.0930099675
C       -1.2159664608   -1.1135978010    1.0351128371
C       -1.6722168456    0.2634168716    0.9598865097
C       -0.9296813479    0.8774946408   -0.0279643674
N       -0.1338100054   -0.0568262757   -0.6427920854
H        1.8729885900    0.5455424415    0.5569820007
H        0.3753551184   -2.0970920366   -0.1707580261
H       -1.6139748578   -1.8874754571    1.6795922443
H       -2.5069419264    0.6925324896    1.5017764411
H       -0.9915307493    1.8874814690   -0.4107901952
C        2.4763433309    0.6843363211   -1.5968691542
H        2.7349201258    0.7444377877   -2.6313320411
$end

$rem
method                b3lyp
basis                 6-31+g(d,p)
unrestricted          true
symmetry              off
sym_ignore            true
incdft                false
incfock               0
scf_convergence       8
thresh                14
jobtype               sp
scf_guess             core
scf_guess_mix         5
scf_algorithm         diis
max_scf_cycles        100
$end

