$molecule
0 2
C        1.9304308238    0.5785316072   -0.5071669785
C       -0.2265269660   -1.2638351714    0.1050061038
C       -1.2311674632   -1.1192586859    1.0314720980
C       -1.6775557009    0.2625608459    0.9506173493
C       -0.9145986443    0.8666282435   -0.0196641453
N       -0.1094471289   -0.0887420914   -0.6232071728
H        1.8860588978    0.6115574857    0.5611552981
H        0.3587434918   -2.1340110841   -0.1570003886
H       -1.6611198259   -1.8982750616    1.6483693560
H       -2.5007915966    0.7048608634    1.4974220338
H       -0.9370826068    1.8814168017   -0.3912419445
C        2.4561613432    0.7008746000   -1.6119910271
H        2.7054859285    0.7361550021   -2.6496649837
$end

$rem
method                b3lyp
basis                 6-31+g(d,p)
unrestricted          true
symmetry              off
sym_ignore            true
incdft                false
incfock               0
scf_convergence       6
thresh                14
jobtype               sp
scf_guess             read
scf_algorithm         diis
max_scf_cycles        100
stability_analysis    true
max_cis_cycles        100
cis_n_roots           4
$end

