$molecule
0 2
C        1.6725149521    0.4115838399   -0.2228126392
C        1.1374037140   -0.8319380119   -0.2301072648
C       -0.2975598819   -1.0745358811   -0.0131968397
C       -1.1635911106    0.3137787470    0.0430961933
C       -0.3580440298    1.5155271317   -0.2391698249
N        0.9295246944    1.5916632643   -0.2731297555
H        2.7448866906    0.5528844683   -0.3179307167
H        1.7717766433   -1.6945287306   -0.4168775230
H       -0.7295909377   -1.9533295151   -0.4943953016
H       -2.1764526876    0.3363431216   -0.3629426391
H       -0.9144111912    2.4190955128   -0.4963983160
C       -0.9360196711   -0.5600648597    1.1952656856
H       -1.6804371850   -1.0264790875    1.8285989419
$end

$rem
method                b3lyp
basis                 6-31+g(d,p)
unrestricted          true
symmetry              off
sym_ignore            true
incdft                false
incfock               0
scf_convergence       6
thresh                14
jobtype               sp
scf_guess             read
scf_algorithm         diis
max_scf_cycles        100
stability_analysis    true
max_cis_cycles        100
cis_n_roots           4
$end

