$molecule
0 2
C        1.6749549003    0.4170871134   -0.3054238537
C        1.1548265372   -0.8814199123   -0.3285224394
C       -0.2857189597   -1.0318745048   -0.0502264629
C       -1.2073064316    0.0959004452   -0.4918083802
C       -0.4573778047    1.2006717518    0.2242648476
N        0.9257211700    1.4777991828   -0.0368144610
H        2.7287712744    0.5990514800   -0.5130488676
H        1.7777006663   -1.7451580808   -0.5385769440
H       -0.7018564204   -2.0366451577   -0.0730624799
H       -2.1282680814    0.0899974667   -1.0582438908
H       -1.0277352348    2.1030104225    0.4315867855
C       -0.9130136008   -0.0578398071    0.9380580242
H       -1.5406980150   -0.2305803995    1.8018181222
$end

$rem
method                b3lyp
basis                 6-31+g(d,p)
unrestricted          true
symmetry              off
sym_ignore            true
incdft                false
incfock               0
scf_convergence       6
thresh                14
jobtype               sp
scf_guess             read
scf_algorithm         diis
max_scf_cycles        100
stability_analysis    true
max_cis_cycles        100
cis_n_roots           4
$end

