$molecule
0 2
C        1.6739362894    0.4095892703   -0.2426161936
C        1.1415131698   -0.8337269875   -0.2289212336
C       -0.2922070542   -1.0761633359    0.0014431245
C       -1.1646861025    0.3041515652    0.0220122175
C       -0.3570792227    1.5135826234   -0.2301207427
N        0.9299062652    1.5916049127   -0.2665761164
H        2.7430687521    0.5521941021   -0.3691735036
H        1.7735073440   -1.6963113706   -0.4230159400
H       -0.7167994966   -1.9665726412   -0.4652087240
H       -2.1661282953    0.3213943766   -0.4111968559
H       -0.9147377694    2.4271839152   -0.4464980839
C       -0.9551373158   -0.5514791018    1.1922419292
H       -1.7120420800   -1.0153566038    1.8126087849
$end

$rem
method                b3lyp
basis                 6-31+g(d,p)
unrestricted          true
symmetry              off
sym_ignore            true
incdft                false
incfock               0
scf_convergence       8
thresh                14
jobtype               opt
scf_guess             read
scf_algorithm         diis
max_scf_cycles        100
geom_opt_max_cycles   300
$end

