$molecule
0 2
C        1.6692165194    0.4020421922   -0.3329704537
C        1.1707511343   -0.8601924275   -0.3015675632
C       -0.2646096269   -1.0439326166    0.0199013927
C       -1.1916186055    0.1353965403   -0.3539592033
C       -0.4095048035    1.3527858618   -0.0006395827
N        0.9063419079    1.5095909548   -0.0468451581
H        2.7191364370    0.5993089318   -0.5378579626
H        1.7844943531   -1.7241872301   -0.5380100906
H       -0.6712464107   -2.0417918059   -0.1499796941
H       -2.0792510804    0.1147803293   -0.9825103802
H       -0.9927657722    2.2322221590    0.2726817779
C       -1.0018509631   -0.2433166335    1.0308973090
H       -1.6559786103   -0.4526155401    1.8658382727
$end

$rem
method                b3lyp
basis                 6-31g(d)
unrestricted          true
symmetry              off
sym_ignore            true
incdft                false
incfock               0
scf_convergence       6
thresh                14
jobtype               sp
scf_guess             read
scf_algorithm         diis
max_scf_cycles        100
stability_analysis    true
max_cis_cycles        100
cis_n_roots           4
$end

