$molecule
0 2
C        1.4298808355   -0.5162862668   -0.3197533289
C        0.4658761785   -1.3310214299    0.3755321344
C       -0.8117936186   -0.9840348135    0.7083348647
C       -1.4667160937    0.2701948990    0.4345863168
C       -0.9557545905    1.3814119512   -0.2130057634
N        0.2475122713    1.6539441195   -0.7738801079
H        2.4031032228   -0.9672164975   -0.4959803541
H        0.8017911517   -2.3257568506    0.6597651267
H       -1.4072674929   -1.7254740750    1.2361544740
H       -2.4937680354    0.3611577897    0.7788881065
H       -1.6471128029    2.2209528728   -0.3007546193
C        1.2776924928    0.7748223881   -0.7958691563
H        2.1565564808    1.1873059136   -1.2940176927
$end

$rem
method                b3lyp
basis                 6-31+g(d,p)
unrestricted          true
symmetry              off
sym_ignore            true
incdft                false
incfock               0
scf_convergence       8
thresh                14
jobtype               sp
scf_guess             core
scf_guess_mix         5
scf_algorithm         diis
max_scf_cycles        100
$end

