$molecule
0 2
C        1.3198689435   -0.1740297518   -0.0811625445
C        0.4388580022   -1.2539058406    0.3869777441
C       -0.9012422113   -1.0817952339    0.4847310865
C       -1.5030179527    0.2330975964    0.3490652772
C       -0.7545936815    1.3168080579    0.0482609488
N        0.6024515089    1.2226284054   -0.3386142732
H        2.3010476621   -0.0848576482    0.3877024036
H        0.9066614819   -2.1820566650    0.7060029028
H       -1.5292735747   -1.9044684086    0.8148287037
H       -2.5407849220    0.3691391148    0.6389764610
H       -1.1166397145    2.3324274612    0.1773736148
C        1.0628469712    0.4327291838   -1.3870354486
H        1.7138174868    0.7742837287   -2.1871068762
$end

$rem
method                b3lyp
basis                 6-31+g(d,p)
unrestricted          true
symmetry              off
sym_ignore            true
incdft                false
incfock               0
scf_convergence       8
thresh                14
jobtype               sp
scf_guess             read
scf_algorithm         diis
max_scf_cycles        100
scf_final_print       1
$end

