$molecule
0 2
C        1.4242743716    0.8353427941   -0.3616690010
C        0.2643171839   -1.4181838372   -0.2067771885
C       -0.9825272487   -1.0560637176    0.2076024894
C       -1.4529982031    0.2802445350    0.4704201565
C       -0.7556637669    1.4685398739    0.3607693024
N        0.5138100408    1.7694656913   -0.0009509843
H        2.3879472837    1.2819110123   -0.6166848686
H        0.4506345533   -2.4795574468   -0.3582563135
H       -1.7082678252   -1.8524633778    0.3596866415
H       -2.4869208852    0.3703554210    0.7948489496
H       -1.3305301572    2.3620600000    0.6141942999
C        1.3771353815   -0.5419832185   -0.4698191442
H        2.2987892711   -1.0196677304   -0.7933643394
****
C        1.4200803858   -0.1098819575    0.0440053860
C        0.5131422835   -1.2401414946    0.2844522441
C       -0.8316451544   -1.0778992713    0.2986227697
C       -1.4328374593    0.2447835035    0.2682382033
C       -0.6678893526    1.3505592439    0.1616530424
N        0.7275981763    1.2823799100   -0.0730299393
H        2.3691974865   -0.0889211121    0.5792819380
H        0.9590536237   -2.2126934612    0.4790258194
H       -1.4799193328   -1.9369216640    0.4492643525
H       -2.4982064615    0.3475267443    0.4545223047
H       -1.0519357381    2.3545364406    0.3183829585
C        1.2792250128    0.6783696712   -1.1930080364
H        0.6941365300    0.4083034472   -2.0714110432
$end

$rem
method                b3lyp
basis                 6-31g(d)
unrestricted          true
symmetry              off
sym_ignore            true
incdft                false
incfock               0
scf_convergence       8
thresh                14
jobtype               fsm
scf_guess             core
scf_guess_mix         5
scf_algorithm         diis
max_scf_cycles        100
fsm_nnode             21
fsm_ngrad             6
fsm_mode              2
fsm_opt_mode          2
$end

