$molecule
0 2
C        1.4680245156   -0.4603414416   -0.1625297477
C        0.4828687242   -1.3007976825    0.4015530815
C       -0.8601910270   -1.0293192533    0.5812249942
C       -1.4740924770    0.2660305724    0.4297588047
C       -0.9440765215    1.3878714661   -0.1439221792
N        0.1943178714    1.5523448765   -0.9157799488
H        2.4858161227   -0.8379872016   -0.2005096651
H        0.8226971695   -2.2904850188    0.7045290612
H       -1.4885970887   -1.8282858438    0.9653832109
H       -2.4693794579    0.3767147958    0.8572036275
H       -1.5236551805    2.3055594747   -0.0635160488
C        1.2217178563    0.7364300589   -0.8942884923
H        2.0275131961    1.0324847953   -1.5712839158
$end

$rem
method                b3lyp
basis                 6-31+g(d,p)
unrestricted          true
symmetry              off
sym_ignore            true
incdft                false
incfock               0
scf_convergence       8
thresh                14
jobtype               opt
scf_guess             read
scf_algorithm         diis
max_scf_cycles        100
geom_opt_max_cycles   300
$end

