$molecule
0 2
C        1.3277963679   -0.2117653334   -0.0992011141
C        0.4362342385   -1.2606096948    0.3833014826
C       -0.9102431008   -1.0865058870    0.4553382881
C       -1.5083776880    0.2221164911    0.3217857832
C       -0.7540403017    1.3174460859    0.0555584349
N        0.5878106200    1.2513559837   -0.3515638806
H        2.3140390293   -0.1260350642    0.3588801629
H        0.8953034780   -2.1754966966    0.7506530170
H       -1.5377762948   -1.9053667019    0.7954785165
H       -2.5440704689    0.3569372735    0.6202320965
H       -1.1126711099    2.3249600569    0.2481944594
C        1.0484761561    0.4346234534   -1.3742561968
H        1.7004827762    0.7685596258   -2.1765782745
$end

$rem
method                b3lyp
basis                 6-31+g(d,p)
unrestricted          true
symmetry              off
sym_ignore            true
incdft                false
incfock               0
scf_convergence       6
thresh                14
jobtype               sp
scf_guess             read
scf_algorithm         diis
max_scf_cycles        100
stability_analysis    true
max_cis_cycles        100
cis_n_roots           4
$end

