$molecule
0 2
C        1.3998943396    0.1292016824    0.1705576188
C        0.4934050615   -1.1416976160    0.2284060000
C       -0.8690588938   -1.0052390977    0.3235183521
C       -1.4923650526    0.2788323445    0.4329812965
C       -0.7541238489    1.3851451823    0.1975018563
N        0.5989639959    1.3093482806   -0.2497683122
H        2.3786124742    0.3913942077    0.5977991293
H        0.8743030028   -2.1608985182    0.0884149529
H       -1.5039670419   -1.8907191006    0.3384144603
H       -2.5410019750    0.3630115395    0.7053453322
H       -1.1335005584    2.3844036770    0.4132515545
C        1.1672431716    0.3105507270   -1.2414265509
H        1.3245590270   -0.4431137161   -2.0171729146
$end

$rem
method                b3lyp
basis                 6-31g(d)
unrestricted          true
symmetry              off
sym_ignore            true
incdft                false
incfock               0
scf_convergence       8
thresh                14
jobtype               sp
scf_guess             core
scf_guess_mix         5
scf_algorithm         diis
max_scf_cycles        100
$end

