$molecule
0 2
C        1.3663655259   -0.1740321422   -0.0162280658
C        0.4553812523   -1.2618257250    0.3836124277
C       -0.8835202121   -1.0810110349    0.4425326325
C       -1.4786163171    0.2359120626    0.3044473825
C       -0.7207500670    1.3271428338    0.0698572371
N        0.6681080925    1.2651886755   -0.2200131266
H        2.3280261842   -0.1147238047    0.5004259707
H        0.9035721452   -2.2088796215    0.6766571924
H       -1.5287671824   -1.9092259814    0.7240994786
H       -2.5332300231    0.3620213794    0.5345527588
H       -1.1053909338    2.3377961267    0.1812260220
C        1.1621306822    0.5102897764   -1.2668281181
H        1.3096545552    0.6215670477   -2.3265190166
$end

$rem
method                b3lyp
basis                 6-31+g(d,p)
unrestricted          true
symmetry              off
sym_ignore            true
incdft                false
incfock               0
scf_convergence       6
thresh                14
jobtype               sp
scf_guess             read
scf_algorithm         diis
max_scf_cycles        100
stability_analysis    true
max_cis_cycles        100
cis_n_roots           4
$end

