$molecule
0 2
C        1.9603928520    0.1280087969   -0.2422829642
C        0.9837353630   -0.7955943879   -0.1702433519
C       -0.3082582248   -0.1064221140   -0.5192521131
C       -1.4483460323   -0.2087906491    0.4775875074
C        0.1987930104    1.3087239417   -0.7331000817
N        1.4740018516    1.4255649309   -0.5897763341
H        3.0221585247    0.0010948703   -0.0709660881
H        1.0790380372   -1.8445157441    0.0767773106
H       -0.6748689841   -0.4730966672   -1.4954601086
H       -2.3700415208    0.3121593461    0.1875650985
H       -0.4318909384    2.1546826749   -0.9955524170
C       -1.4094958829   -0.8536273433    1.6223454048
H       -2.0752180555   -1.0481876552    2.4523581373
$end

$rem
method                b3lyp
basis                 6-31+g(d,p)
unrestricted          true
symmetry              off
sym_ignore            true
incdft                false
incfock               0
scf_convergence       8
thresh                14
jobtype               sp
scf_guess             read
scf_algorithm         diis
max_scf_cycles        100
scf_final_print       1
$end

