$molecule
0 2
C        2.1533176575    0.1311404754   -0.5078366295
C        1.1925506902   -0.7707807381   -0.2348762653
C       -0.1313267574   -0.0406358125   -0.2805650748
C       -1.0010926800   -0.1628219816    0.9066809235
C        0.3623276949    1.3687209901   -0.5771414198
N        1.6390010530    1.4462500607   -0.7210612340
H        3.2220471705   -0.0268372223   -0.5821554876
H        1.3054908269   -1.8266935534   -0.0285788128
H       -0.7061929189   -0.3799946169   -1.1687705911
H       -2.9117112541   -0.9182168525    0.4407252299
H       -0.2912920279    2.2306536390   -0.6784167266
C       -2.2239039125   -0.5434790474    1.2076132923
H       -2.6092155420   -0.5073053405    2.2243827960
$end

$rem
method                b3lyp
basis                 6-31+g(d,p)
unrestricted          true
symmetry              off
sym_ignore            true
incdft                false
incfock               0
scf_convergence       8
thresh                14
jobtype               sp
scf_guess             core
scf_guess_mix         5
scf_algorithm         diis
max_scf_cycles        100
$end

