$molecule
0 2
C        1.8970056623    0.2742610703   -0.5364035172
C        1.2458409324   -0.9631508897   -0.6350018280
C       -0.0764983023   -1.0596755593   -0.2375098126
C       -0.7456330571    0.0937300068    0.2603660867
C        0.0333327482    1.2909937607    0.3090612768
N        1.3002908388    1.3867855736   -0.0707365890
H        2.9362210123    0.3798253822   -0.8410165470
H        1.7783723219   -1.8287824333   -1.0188556987
H       -0.6112778682   -2.0043046847   -0.3003684520
H       -2.6782168685   -0.8299435387    0.6478908783
H       -0.4302757675    2.2043270747    0.6828075288
C       -2.0853847109    0.0783699090    0.6827915316
H       -2.5637769418    0.9775643289    1.0569751417
****
C        1.9521680423    0.1415624190   -0.2165775774
C        0.9824069402   -0.7884863431   -0.2052207760
C       -0.3095071169   -0.0909620511   -0.5378194683
C       -1.4477360574   -0.2372190589    0.4564625780
C        0.1971883954    1.3340539333   -0.6796587971
N        1.4672976553    1.4539005003   -0.5096382726
H        3.0127502118    0.0124296208   -0.0338126576
H        1.0771101418   -1.8479025222   -0.0056636540
H       -0.6756249420   -0.4156622715   -1.5290078083
H       -2.3776925346    0.2749922901    0.1762128959
H       -0.4358786103    2.1877578113   -0.9130787340
C       -1.3875354219   -0.9016181311    1.5873188373
H       -2.0549467036   -1.1228461971    2.4104834341
$end

$rem
method                b3lyp
basis                 6-31g(d)
unrestricted          true
symmetry              off
sym_ignore            true
incdft                false
incfock               0
scf_convergence       8
thresh                14
jobtype               fsm
scf_guess             core
scf_guess_mix         5
scf_algorithm         diis
max_scf_cycles        100
fsm_nnode             21
fsm_ngrad             6
fsm_mode              2
fsm_opt_mode          2
$end

