$molecule
0 2
C        2.1532114983    0.1641216733   -0.4955844477
C        1.2412053834   -0.7982631086   -0.2672533817
C       -0.1231987229   -0.1443270860   -0.3252197728
C       -0.9796490493   -0.3369158035    0.8646278935
C        0.2947081074    1.2958148998   -0.5914164750
N        1.5672757208    1.4498951842   -0.7032727061
H        3.2314971948    0.0725197678   -0.5353520671
H        1.4116496987   -1.8476538945   -0.0678806141
H       -0.6691549925   -0.5033960397   -1.2219373256
H       -3.0482491062   -0.4625691461    0.4530047150
H       -0.4070454763    2.1176803734   -0.7020869374
C       -2.2436721527   -0.4781124842    1.1981127357
H       -2.5512865215   -0.6131371958    2.2326684690
$end

$rem
method                b3lyp
basis                 6-31+g(d,p)
unrestricted          true
symmetry              off
sym_ignore            true
incdft                false
incfock               0
scf_convergence       8
thresh                14
jobtype               opt
scf_guess             read
scf_algorithm         diis
max_scf_cycles        100
geom_opt_max_cycles   300
$end

