$molecule
0 2
C        1.9889755599    0.1125961065   -0.3383406359
C        0.9993217888   -0.7812140752   -0.1485311707
C       -0.2964986879   -0.0720986076   -0.4421298297
C       -1.4389611254   -0.1559848067    0.5538868931
C        0.2226245831    1.3223725447   -0.7245813757
N        1.5079087602    1.4095497389   -0.6933309052
H        3.0584302058   -0.0374898513   -0.2562299310
H        1.0922762919   -1.8222736661    0.1301110062
H       -0.6840138864   -0.4489627116   -1.4087805383
H       -2.2006176738    0.6277108428    0.4485555384
H       -0.4082211188    2.1738449019   -0.9695309646
C       -1.6117315041   -1.0825903825    1.4690689028
H       -2.3522016092   -1.3298028947    2.2182430979
$end

$rem
method                b3lyp
basis                 6-31+g(d,p)
unrestricted          true
symmetry              off
sym_ignore            true
incdft                false
incfock               0
scf_convergence       8
thresh                14
jobtype               opt
scf_guess             read
scf_algorithm         diis
max_scf_cycles        100
geom_opt_max_cycles   300
$end

