$molecule
0 2
C        1.9520930701    0.1417560943   -0.2160873481
C        0.9823690900   -0.7882895006   -0.2046201354
C       -0.3098947815   -0.0909953903   -0.5382013100
C       -1.4479077129   -0.2383205515    0.4563373940
C        0.1970923532    1.3341743801   -0.6791093460
N        1.4670966099    1.4537174408   -0.5083058303
H        3.0128296271    0.0119277222   -0.0348449570
H        1.0787567367   -1.8484835737   -0.0097138518
H       -0.6741993271   -0.4167486934   -1.5294949013
H       -2.3782942661    0.2727043552    0.1752409552
H       -0.4357968973    2.1881709586   -0.9119203221
C       -1.3876637618   -0.8985148172    1.5895185539
H       -2.0564807402   -1.1210984246    2.4112010989
$end

$rem
method                b3lyp
basis                 6-31g(d)
unrestricted          true
symmetry              off
sym_ignore            true
incdft                false
incfock               0
scf_convergence       8
thresh                14
jobtype               opt
scf_guess             core
scf_guess_mix         5
scf_algorithm         diis
max_scf_cycles        100
geom_opt_max_cycles   300
$end

