$molecule
0 2
C        2.0523007183    0.1567020619   -0.4098177778
C        1.0939013491   -0.7554373006   -0.1730158308
C       -0.2359133896   -0.0681708829   -0.3874663234
C       -1.0785700249   -0.1363483193    0.8688980009
C        0.2520680897    1.3220051239   -0.7412466182
N        1.5338650237    1.4388857168   -0.7640305060
H        3.1275152602    0.0252132625   -0.3719666269
H        1.2076095012   -1.7929005920    0.1125267451
H       -0.7677000351   -0.5129777878   -1.2475547067
H       -2.3176752535    0.1361271993    0.6580895856
H       -0.4048591685    2.1598828596   -0.9650602813
C       -2.0304273233   -1.0464797938    1.1470615255
H       -2.5548231675   -1.0108444129    2.1119929012
$end

$rem
method                b3lyp
basis                 6-31+g(d,p)
unrestricted          true
symmetry              off
sym_ignore            true
incdft                false
incfock               0
scf_convergence       6
thresh                14
jobtype               sp
scf_guess             read
scf_algorithm         diis
max_scf_cycles        100
stability_analysis    true
max_cis_cycles        100
cis_n_roots           4
$end

