$molecule
0 2
C        2.0576312224    0.1537996266   -0.4196453412
C        1.0948059915   -0.7517514498   -0.1642955122
C       -0.2325411141   -0.0585007043   -0.3763933447
C       -1.0917457650   -0.1329045260    0.8641097506
C        0.2558146571    1.3294704712   -0.7377299563
N        1.5393921962    1.4348978743   -0.7765628750
H        3.1313966052    0.0158844098   -0.3922778985
H        1.2075625536   -1.7876564413    0.1255515569
H       -0.7577598552   -0.5024000024   -1.2415523619
H       -2.3367149418    0.1110515697    0.6436705906
H       -0.3974965784    2.1696810081   -0.9589864425
C       -2.0266083599   -1.0509199110    1.1594929901
H       -2.5664450319   -1.0149947903    2.1130289312
$end

$rem
method                b3lyp
basis                 6-31+g(d,p)
unrestricted          true
symmetry              off
sym_ignore            true
incdft                false
incfock               0
scf_convergence       8
thresh                14
jobtype               sp
scf_guess             read
scf_algorithm         diis
max_scf_cycles        100
$end

