
$molecule
0 2
$end

$rem
method              b3lyp
basis               6-31g(d)
unrestricted        true
symmetry            off
sym_ignore          true
incdft              false
incfock             0
scf_convergence     8
thresh              14
$end

