$molecule
0 2
C        1.5192584318    0.3412276347   -0.2825837968
C        0.6229295998   -0.8943602707   -0.0663378296
C       -0.4105324038   -0.5257739640   -1.1356944108
C       -0.9929659704    0.5160844396    0.8185099267
C       -0.5930349016    0.8948047147   -0.6172779820
N        0.8462185625    1.3819185069   -0.5924417704
H        2.6008888934    0.3566521624   -0.1667305751
H        1.1023308562   -1.8724290725   -0.0800316544
H       -1.2342361998   -1.1816393832   -1.4113826804
H       -1.7117138502    1.0528918285    1.4270845980
H       -1.2440695778    1.5890037187   -1.1443219302
C       -0.2592522142   -0.5602814427    1.1550791943
H       -0.2458212257   -1.0980988721    2.0961289112
$end

$rem
method                b3lyp
basis                 6-31+g(d,p)
unrestricted          true
symmetry              off
sym_ignore            true
incdft                false
incfock               0
scf_convergence       6
thresh                14
jobtype               sp
scf_guess             read
scf_algorithm         diis
max_scf_cycles        100
stability_analysis    true
max_cis_cycles        100
cis_n_roots           4
$end

