$molecule
0 2
C        1.5426129769    0.3719417922   -0.3260656385
C        0.7227708783   -0.8635018056   -0.0428592573
C       -0.5145468740   -0.6172926186   -0.8458735333
C       -0.9367405703    0.6657883509    0.8761559384
C       -0.5953921241    0.9073334168   -0.5902897490
N        0.8268745532    1.3796940261   -0.6655428452
H        2.6216236178    0.4414800959   -0.2056790384
H        1.1874525981   -1.8461919043   -0.0209127559
H       -1.1591154597   -1.2976074902   -1.3831832202
H       -1.5660812044    1.2259459068    1.5524036839
H       -1.2664163006    1.5283940883   -1.1806456000
C       -0.3482220496   -0.5986462361    1.0229731633
H       -0.5413967984   -1.3343043483    1.7991395179
$end

$rem
method                b3lyp
basis                 6-31+g(d,p)
unrestricted          true
symmetry              off
sym_ignore            true
incdft                false
incfock               0
scf_convergence       6
thresh                14
jobtype               sp
scf_guess             read
scf_algorithm         diis
max_scf_cycles        100
stability_analysis    true
max_cis_cycles        100
cis_n_roots           4
$end

