$molecule
0 2
C        1.5165408880    0.4236472297   -0.3061042956
C        0.7854880467   -0.8433872844   -0.0438944335
C       -0.5580410750   -0.6829907635   -0.6629171117
C       -0.9846718698    0.7065657501    0.8811113531
C       -0.6310384912    0.8926968072   -0.5894862516
N        0.7627133630    1.4038763884   -0.6567708465
H        2.5901454308    0.5487085279   -0.1776660104
H        1.2750052430   -1.8096669870    0.0218846419
H       -1.0564846712   -1.3644481130   -1.3446515964
H       -1.1061426852    1.4339283286    1.6784818414
H       -1.3089772932    1.4516506252   -1.2351377615
C       -0.5364109292   -0.6811960569    0.8661071548
H       -0.7481259568   -1.4793844523    1.5690433160
$end

$rem
method                b3lyp
basis                 6-31+g(d,p)
unrestricted          true
symmetry              off
sym_ignore            true
incdft                false
incfock               0
scf_convergence       8
thresh                14
jobtype               sp
scf_guess             core
scf_guess_mix         5
scf_algorithm         diis
max_scf_cycles        100
$end

