$molecule
0 2
C        1.5196817895    0.3440739078   -0.2649461972
C        0.6224748319   -0.8939218341   -0.0647136388
C       -0.3953703744   -0.5206731519   -1.1472882853
C       -1.0023286462    0.5091940545    0.8086810719
C       -0.5861713701    0.8954094682   -0.6198733192
N        0.8530895815    1.3865087220   -0.5766345126
H        2.6004622616    0.3578332345   -0.1344527725
H        1.1022922546   -1.8726626952   -0.0767669264
H       -1.2213134024   -1.1742516430   -1.4232003148
H       -1.7271370039    1.0439991456    1.4125314193
H       -1.2321738086    1.5929355166   -1.1508801546
C       -0.2722119407   -0.5659090966    1.1475628476
H       -0.2612941731   -1.1025356283    2.0899807822
****
C        1.6625145202    0.3780786737   -0.4999414768
C        1.0773922284   -0.8968092175   -0.4474339995
C       -0.4043559368   -0.7270834765   -0.3779216456
C       -1.1101707328    0.7373958088    0.9856622282
C       -0.5207069270    0.8483941951   -0.4208750684
N        0.8245718640    1.4095548893   -0.4891427507
H        2.7356625554    0.5624514373   -0.5242961413
H        1.6150004589   -1.8382452129   -0.4189991135
H       -0.9739436701   -1.3218554543   -1.1040162040
H       -1.4331179720    1.4985281284    1.6896221245
H       -1.1715747909    1.2951713405   -1.1823338388
C       -1.0261051937   -0.5968425697    1.0226222583
H       -1.2751664037   -1.3487385421    1.7670536275
$end

$rem
method                b3lyp
basis                 6-31g(d)
unrestricted          true
symmetry              off
sym_ignore            true
incdft                false
incfock               0
scf_convergence       8
thresh                14
jobtype               fsm
scf_guess             core
scf_guess_mix         5
scf_algorithm         diis
max_scf_cycles        100
fsm_nnode             21
fsm_ngrad             6
fsm_mode              2
fsm_opt_mode          2
$end

