$molecule
0 2
C        1.5328754608    0.4096670142   -0.3168914923
C        0.7919222248   -0.8485990615   -0.0437595179
C       -0.5516166944   -0.6785126703   -0.6564151296
C       -0.9825518773    0.7087015636    0.8781937955
C       -0.6149064746    0.8990441927   -0.5862267977
N        0.7844496346    1.3961598710   -0.6599305891
H        2.6096324999    0.5209991282   -0.2045533170
H        1.2718413871   -1.8202491592    0.0205550756
H       -1.0706795854   -1.3566236970   -1.3252729217
H       -1.2585080538    1.4078081248    1.6595145117
H       -1.2851751037    1.4641361717   -1.2345277820
C       -0.5205555972   -0.6721720868    0.8765478931
H       -0.7333045762   -1.4673261090    1.5823869392
$end

$rem
method                b3lyp
basis                 6-31+g(d,p)
unrestricted          true
symmetry              off
sym_ignore            true
incdft                false
incfock               0
scf_convergence       8
thresh                14
jobtype               opt
scf_guess             read
scf_algorithm         diis
max_scf_cycles        100
geom_opt_max_cycles   300
$end

