$molecule
0 2
C        1.6627116761    0.3778067110   -0.5006337762
C        1.0782104491   -0.8976388011   -0.4485777725
C       -0.4036204346   -0.7278291279   -0.3764570402
C       -1.1104355262    0.7382854164    0.9862889302
C       -0.5199593501    0.8483638854   -0.4196107024
N        0.8250850576    1.4099223014   -0.4883141472
H        2.7357840270    0.5630120403   -0.5249218993
H        1.6165178120   -1.8388598983   -0.4216520580
H       -0.9745606891   -1.3222240636   -1.1019714764
H       -1.4356233044    1.4992973835    1.6892218875
H       -1.1708528121    1.2942420276   -1.1818826609
C       -1.0262340259   -0.5960862876    1.0226885103
H       -1.2770228793   -1.3482915870    1.7658222050
$end

$rem
method                b3lyp
basis                 6-31g(d)
unrestricted          true
symmetry              off
sym_ignore            true
incdft                false
incfock               0
scf_convergence       8
thresh                14
jobtype               opt
scf_guess             core
scf_guess_mix         5
scf_algorithm         diis
max_scf_cycles        100
geom_opt_max_cycles   300
$end

