$molecule
0 2
C        1.5451528657    0.3797937727   -0.3050659797
C        0.7522862274   -0.8823811146   -0.1146952840
C       -0.4455080314   -0.6042477319   -0.9495608666
C       -0.9984135178    0.6186366485    0.8530114589
C       -0.5791482387    0.8913142417   -0.5990489747
N        0.8197136826    1.3989916924   -0.6000288805
H        2.6252187558    0.4693063692   -0.1986661371
H        1.2742182675   -1.8459320248   -0.1102364264
H       -1.2311938869   -1.3051776769   -1.1925597491
H       -1.5121278306    1.2742606474    1.5493300633
H       -1.2374517861    1.5100043176   -1.2088740211
C       -0.4141490716   -0.5995102572    1.0479652850
H       -0.6251741927   -1.3420256101    1.8180501774
$end

$rem
method                b3lyp
basis                 6-31g(d)
unrestricted          true
symmetry              off
sym_ignore            true
incdft                false
incfock               0
scf_convergence       8
thresh                14
jobtype               ts
scf_guess             read
scf_algorithm         diis
max_scf_cycles        100
geom_opt_max_cycles   500
geom_opt_dmax         100
geom_opt_tol_gradient 10
geom_opt_hessian      read
$end

