$molecule
0 2
C        1.1432524990    0.1947299942    0.4326382813
C        0.8357387726   -0.9896863448   -0.4981579485
C       -0.4960093844   -0.9977441719   -0.6896159736
C       -1.0688829887    0.1736483464    0.1353348605
C       -0.4415611190    1.4484661358   -0.4620459009
N        0.8271947293    1.4802953375   -0.3140981871
H        2.1338530467    0.2251323239    0.8814135435
H        1.5758988479   -1.6609774462   -0.9180914003
H       -1.0816987220   -1.6592811055   -1.3178069999
H       -2.1437460672    0.1761021157    0.3128407691
H       -0.9923925316    2.2348034078   -0.9738090538
C       -0.0928447190    0.0586259801    1.3118325888
H       -0.1988023636   -0.6841145732    2.0995654210
$end

$rem
method                b3lyp
basis                 6-31+g(d,p)
unrestricted          true
symmetry              off
sym_ignore            true
incdft                false
incfock               0
scf_convergence       6
thresh                14
jobtype               sp
scf_guess             read
scf_algorithm         diis
max_scf_cycles        100
stability_analysis    true
max_cis_cycles        100
cis_n_roots           4
$end

