$molecule
0 2
C        1.2055199906    0.3488166786    0.3411769499
C        0.6797069266   -1.0709552608   -0.1674127014
C       -0.6044272121   -0.9425576707   -0.8387662588
C       -1.0793073158    0.1407864185    0.1258666176
C       -0.5204173093    1.4438612671   -0.4347000209
N        0.7593282106    1.5290616517   -0.3536878875
H        2.2207200709    0.3438608088    0.7224565628
H        1.3939358862   -1.8852684604   -0.2221350669
H       -0.9681647933   -1.2528241498   -1.8135354013
H       -2.1184772156    0.1395229812    0.4596866737
H       -1.1100564687    2.1833691084   -0.9724580591
C        0.0959818986   -0.3292949192    1.0587742751
H        0.0456573308   -0.6483784533    2.0947343162
$end

$rem
method                b3lyp
basis                 6-31+g(d,p)
unrestricted          true
symmetry              off
sym_ignore            true
incdft                false
incfock               0
scf_convergence       6
thresh                14
jobtype               sp
scf_guess             read
scf_algorithm         diis
max_scf_cycles        100
stability_analysis    true
max_cis_cycles        100
cis_n_roots           4
$end

