$molecule
0 2
C        0.6975230609    0.0035034801    0.1579725008
C        0.8872090484   -1.1652138069   -0.7916650795
C        0.1792994775   -2.2697528265   -0.7931868846
C       -1.2093033961    1.0981960084    0.8277710078
C       -0.4543230376    1.8540123893   -0.1824741799
N        0.6204261766    1.2698471106   -0.5926437345
H        1.6021902805    0.0762767849    0.7871759356
H        1.6957925352   -1.0192535395   -1.5174524067
H        0.1568488679   -3.1931177704   -1.3582031229
H       -2.1354587580    1.4141570636    1.2945934937
H       -0.7456434186    2.8278735175   -0.5744136134
C       -0.5250907098   -0.0411306332    1.0355666745
H       -0.7694701269   -0.8553977780    1.7069594090
$end

$rem
method                b3lyp
basis                 6-31g(d)
unrestricted          true
symmetry              off
sym_ignore            true
incdft                false
incfock               0
scf_convergence       8
thresh                14
jobtype               opt
scf_guess             core
scf_guess_mix         5
scf_algorithm         diis
max_scf_cycles        100
geom_opt_max_cycles   300
$end

