$molecule
0 2
C        1.5716783180    0.3989309435   -0.4775925785
C        1.2450735921   -0.9105411304   -0.1791091331
C       -0.0290881275   -1.4371880166    0.2393437652
C       -1.3727347365    0.6809606595    0.2509144424
C       -0.4441272494    1.6245769181   -0.1461701627
N        0.8658173121    1.5538657580   -0.4802257371
H        2.6109892053    0.5554258812   -0.7749337823
H        2.0544341133   -1.6304843322   -0.2739414599
H       -0.0620061770   -2.5095789697    0.4210025955
H       -2.3717034157    1.0600360688    0.4526484073
H       -0.8270440457    2.6455119117   -0.2102187527
C       -1.1823404522   -0.7359821613    0.4290109163
H       -2.0589483362   -1.2955335303    0.7492714800
****
C        0.6494309750    0.0839862179    0.2983322321
C        1.0799737859   -1.2140661537   -0.3597843021
C        0.4228154477   -2.3485818540   -0.3095041724
C       -1.3982601824    1.1290312803    0.3414389654
C       -0.4704153827    1.7516647742   -0.6140221359
N        0.6894297683    1.1906028703   -0.6756406850
H        1.3932951277    0.3330076758    1.0755996055
H        2.0230753135   -1.1395481907   -0.9138067931
H        0.5523013233   -3.3546941907   -0.6880575142
H       -2.4150483560    1.4503882387    0.5372059113
H       -0.7061292583    2.6171070148   -1.2324926230
C       -0.7327005204    0.1007431991    0.8971880473
H       -1.0877680418   -0.5996408818    1.6435434643
$end

$rem
method                b3lyp
basis                 6-31g(d)
unrestricted          true
symmetry              off
sym_ignore            true
incdft                false
incfock               0
scf_convergence       8
thresh                14
jobtype               fsm
scf_guess             core
scf_guess_mix         5
scf_algorithm         diis
max_scf_cycles        100
fsm_nnode             21
fsm_ngrad             6
fsm_mode              2
fsm_opt_mode          2
$end

