$molecule
0 2
C        0.7146456836    0.0983554972    0.2848850543
C        1.0454094738   -1.2213021095   -0.3915995562
C        0.2529172502   -2.2687254800   -0.4222659711
C       -1.3461670746    1.1140309297    0.4295829644
C       -0.5037378488    1.7065129119   -0.6206644145
N        0.6645924553    1.1675447603   -0.7316800961
H        1.5331712908    0.3519603757    0.9787041987
H        2.0081013623   -1.2372249716   -0.9148700990
H        0.2489975985   -3.2616640446   -0.8504663841
H       -2.3586363776    1.4132530285    0.6744772938
H       -0.8051611971    2.5254496004   -1.2707500461
C       -0.6142568033    0.1330928282    0.9922416696
H       -0.8978692787   -0.5334150984    1.7974573354
$end

$rem
method                b3lyp
basis                 6-31+g(d,p)
unrestricted          true
symmetry              off
sym_ignore            true
incdft                false
incfock               0
scf_convergence       8
thresh                14
jobtype               opt
scf_guess             read
scf_algorithm         diis
max_scf_cycles        100
geom_opt_max_cycles   300
$end

