$molecule
0 2
C        0.9049090934    0.1915222163    0.3290767105
C        1.1541311811   -1.1076189239   -0.4012587283
C        0.0472147489   -1.8206382674   -0.2951709265
C       -1.3308486008    0.8340732505    0.2734884230
C       -0.4986103740    1.6183537314   -0.6181837736
N        0.7626071666    1.3031229450   -0.6218244138
H        1.6567156605    0.4511160394    1.0876101645
H        2.0664866584   -1.3306844147   -0.9563948803
H       -0.3351648483   -2.7767567849   -0.6406733430
H       -2.3992278677    0.9522609213    0.4114826850
H       -0.8673510402    2.4195828119   -1.2579684015
C       -0.5021459105   -0.0922679837    0.8717336161
H       -0.7167093365   -0.6541973203    1.7731348102
$end

$rem
method                b3lyp
basis                 6-31+g(d,p)
unrestricted          true
symmetry              off
sym_ignore            true
incdft                false
incfock               0
scf_convergence       8
thresh                14
jobtype               freq
scf_guess             read
scf_algorithm         diis
max_scf_cycles        100
$end

