$molecule
0 2
C        0.9824701920    0.2224775865    0.1292569563
C        1.2078741355   -1.1612426746   -0.4232083438
C        0.1511540003   -1.9315356372   -0.2599592418
C       -1.3607733874    0.9174102665    0.3196551170
C       -0.5281539919    1.7561601155   -0.5116603855
N        0.6878249502    1.3676044774   -0.6964053495
H        1.9194644110    0.5472551141    0.6443876805
H        2.1861105165   -1.5252823242   -0.7254564371
H       -0.0503610344   -2.9996625779   -0.2968206815
H       -2.4168004990    1.1062465600    0.4926005376
H       -0.8907322895    2.6897412534   -0.9491016691
C       -0.6733536936   -0.1312265108    0.8387767989
H       -1.2727167788   -0.8700774277    1.3929869601
$end

$rem
method                b3lyp
basis                 6-31g(d)
unrestricted          true
symmetry              off
sym_ignore            true
incdft                false
incfock               0
scf_convergence       8
thresh                14
jobtype               sp
scf_guess             core
scf_guess_mix         5
scf_algorithm         diis
max_scf_cycles        100
$end

