$molecule
0 2
C        1.3404067529   -0.0636233931    0.2520628170
C        0.9381022882   -1.2318494895    1.0655093189
C        1.8044615883   -1.9719986745    1.7341278208
C       -1.6299929233    1.8153932983   -0.7892016166
C       -0.8060616252    0.5734284903   -0.5485054482
N        0.6115734352    0.7267019819   -0.4472275178
H        2.4124753268    0.1430964329    0.2571820906
H       -0.1224959735   -1.4947029187    1.1166765850
H        1.7908432207   -2.8407394873    2.3787103871
H       -1.9987369731    2.7219374189   -0.3350357312
H       -1.2603754149   -0.2563342591    0.0007045199
C       -1.4731971605    1.0460023314   -1.8179538698
H       -1.6070025416    0.8326882684   -2.8670493555
$end

$rem
method                b3lyp
basis                 6-31+g(d,p)
unrestricted          true
symmetry              off
sym_ignore            true
incdft                false
incfock               0
scf_convergence       6
thresh                14
jobtype               sp
scf_guess             read
scf_algorithm         diis
max_scf_cycles        100
stability_analysis    true
max_cis_cycles        100
cis_n_roots           4
$end

