$molecule
0 2
C        1.5258961124    0.2824471965    0.6702683021
C        1.0972415062   -1.0098392889    0.4323167911
C       -0.1574804803   -1.4433073095   -0.1273746205
C       -1.2393572906    0.7884358064   -0.5030886509
C       -0.2742916996    1.6674858601   -0.0482145404
N        0.9612765364    1.4976486453    0.4779372259
H        2.5255110387    0.3610345247    1.1034228404
H        1.7990316334   -1.7951751195    0.7027375272
H       -0.2859150848   -2.5192998038   -0.2266366739
H       -2.1517230449    1.2453558637   -0.8788841434
H       -0.5454201615    2.7230961082   -0.1207795702
C       -1.1866646495   -0.6508610922   -0.5401971568
H       -2.0681044156   -1.1470213914   -0.9415073311
****
C        1.3460752019    0.0090529781    0.2030165238
C        1.0889605942   -1.3388868179    0.7527585083
C        2.0470136290   -2.1072040908    1.2363412756
C       -1.8103450463    1.7868378699   -0.3533290186
C       -0.8757296071    0.6024435227   -0.3877015112
N        0.5267045036    0.8598137233   -0.2924616343
H        2.3968421029    0.3088491616    0.2297461358
H        0.0605996697   -1.7131179375    0.7552131938
H        2.1313597127   -3.0917784399    1.6786931116
H       -2.2366731386    2.5482851467    0.2825234912
H       -1.2385735633   -0.3568763509   -0.0029961810
C       -1.6345510995    1.2539991433   -1.5175681168
H       -1.8016829592    1.2385820917   -2.5842357784
$end

$rem
method                b3lyp
basis                 6-31g(d)
unrestricted          true
symmetry              off
sym_ignore            true
incdft                false
incfock               0
scf_convergence       8
thresh                14
jobtype               fsm
scf_algorithm         rca_diis
thresh_rca_switch     4
max_scf_cycles        300
fsm_nnode             21
fsm_ngrad             6
fsm_mode              2
fsm_opt_mode          2
$end

