$molecule
0 2
C        1.4655987303    0.2702757484    0.3623839299
C        1.1143534031   -1.1889939422    0.4949642879
C        0.7097916904   -1.9840581150   -0.4678018061
C       -1.4774380935    1.2882990769   -1.0393016971
C       -0.7270267542    1.2542629371    0.2541035416
N        0.7221184328    1.2953421379    0.2669107892
H        2.5454418151    0.4569934149    0.3981361009
H        1.3329883876   -1.6085285795    1.4880726627
H        0.4794983167   -3.0345164608   -0.5901163469
H       -1.7017096182    1.8752471527   -1.9174870498
H       -1.0937282117    1.8547323638    1.0912642821
C       -1.5975452351    0.1852897329   -0.3565717857
H       -2.0119826866   -0.8068618616   -0.2758399900
$end

$rem
method                b3lyp
basis                 6-31+g(d,p)
unrestricted          true
symmetry              off
sym_ignore            true
incdft                false
incfock               0
scf_convergence       8
thresh                14
jobtype               opt
scf_guess             read
scf_algorithm         diis
max_scf_cycles        100
geom_opt_max_cycles   300
$end

