$molecule
0 2
C        1.4653478620    0.2652175491    0.3204145808
C        1.0632135057   -1.1813032995    0.4819974370
C        0.8591477446   -2.0317637923   -0.4957011412
C       -1.4812187782    1.2963042303   -1.0073913130
C       -0.7143739246    1.2629001699    0.2771342032
N        0.7354401836    1.3025140409    0.2572805719
H        2.5486739341    0.4276360348    0.3014512639
H        1.0282704992   -1.5293041623    1.5250326205
H        0.6102432166   -3.0789475296   -0.6088645394
H       -1.7112679878    1.8815613071   -1.8852464088
H       -1.0704403207    1.8602915794    1.1206366990
C       -1.5872156779    0.1909921858   -0.3267845682
H       -1.9854600668   -0.8086147038   -0.2512424860
$end

$rem
method                b3lyp
basis                 6-31+g(d,p)
unrestricted          true
symmetry              off
sym_ignore            true
incdft                false
incfock               0
scf_convergence       8
thresh                14
jobtype               opt
scf_guess             read
scf_algorithm         diis
max_scf_cycles        100
geom_opt_max_cycles   300
$end

