$molecule
0 2
C        1.5435678408    0.2246571329    0.2984686107
C        1.1139254691   -1.1471046782    0.6879482707
C        0.8726693082   -2.1610249913   -0.1093211630
C       -1.5401636358    1.2768631253   -0.8463533246
C       -0.5608147784    1.3685686564    0.1968716833
N        0.7813626290    1.2118635802    0.0950800573
H        2.6231269576    0.3947805127    0.2013452330
H        0.9647598714   -1.2572108845    1.7742782439
H        0.6061246096   -3.1898798147    0.1158775877
H       -2.3782757265    1.9813035230   -0.9095102924
H       -0.8284293305    1.7462170154    1.1937572012
C       -1.3257921628    0.0228694814   -1.2839254496
H       -2.1117008707   -0.6144190614   -1.7057997420
$end

$rem
method                b3lyp
basis                 6-31g(d)
unrestricted          true
symmetry              off
sym_ignore            true
incdft                false
incfock               0
scf_convergence       6
thresh                14
jobtype               sp
scf_guess             read
scf_algorithm         diis
max_scf_cycles        100
stability_analysis    true
max_cis_cycles        100
cis_n_roots           4
$end

