$molecule
0 2
C        0.9365494245   -0.2311277403   -0.9044965831
C        0.0542700820   -1.3163137069   -0.4253016821
C       -0.9515907892   -1.0698325442    0.4432840154
C       -1.3039882852    0.2907872402    0.8245254913
C       -0.5796326734    1.3444127978    0.3966910979
N        0.6146272261    1.1867516971   -0.3515393777
H        1.2088205827   -0.2431515139   -1.9618392629
H        0.2159822355   -2.3133905239   -0.8276795338
H       -1.5835193305   -1.8836996244    0.7866853253
H       -2.2242438137    0.4651422157    1.3740852909
H       -0.9016721370    2.3736583331    0.5228090867
C        1.7508553954    0.5019596276    0.0714933553
H        2.7635420824    0.8948037426    0.0512827767
$end

$rem
method                b3lyp
basis                 6-31+g(d,p)
unrestricted          true
symmetry              off
sym_ignore            true
incdft                false
incfock               0
scf_convergence       8
thresh                14
jobtype               sp
scf_guess             read
scf_algorithm         diis
max_scf_cycles        100
scf_final_print       1
$end

