$molecule
0 2
C        0.9308829380   -0.2645786204   -0.8893293198
C        0.0490690722   -1.3544338129   -0.4057510994
C       -0.9883432744   -1.1003607774    0.4197341052
C       -1.3287551381    0.2626243010    0.8125798074
C       -0.5864118795    1.3101066449    0.4048251031
N        0.5921455648    1.1485678945   -0.3696661397
H        1.2001523372   -0.2976253333   -1.9473455336
H        0.2304475044   -2.3569768778   -0.7857254581
H       -1.6422585676   -1.9080413921    0.7352738905
H       -2.2355788880    0.4417400371    1.3820904634
H       -0.8692406812    2.3425872607    0.5845579002
C        1.7511474176    0.5007360152    0.0583284375
H        2.7517979090    0.9218620438    0.0103542792
$end

$rem
method                b3lyp
basis                 6-31+g(d,p)
unrestricted          true
symmetry              off
sym_ignore            true
incdft                false
incfock               0
scf_convergence       8
thresh                14
jobtype               opt
scf_guess             read
scf_algorithm         diis
max_scf_cycles        100
geom_opt_max_cycles   300
$end

