$molecule
0 2
C        1.4349551279    0.2156395271   -1.0076185014
C       -0.3433945681   -1.9499406028   -0.3578931370
C       -1.2421647846   -1.2533440052    0.3178882625
C       -1.2277770457    0.1475336197    0.7539818497
C       -0.4441460807    1.1888551214    0.3943658033
N        0.5088144118    1.3409833787   -0.6422653464
H        1.4371146539   -0.6294016197   -1.6682791416
H       -0.2352885807   -2.9751848193   -0.6872535400
H       -2.1354753248   -1.8064455841    0.6408250532
H       -1.9880211178    0.3856771046    1.4950127694
H       -0.6305392827    2.1443055085    0.8836205232
C        1.9666427377    1.1425650564   -0.2965490773
H        2.7543341751    1.6949647349    0.1840909209
$end

$rem
method                b3lyp
basis                 6-31+g(d,p)
unrestricted          true
symmetry              off
sym_ignore            true
incdft                false
incfock               0
scf_convergence       8
thresh                14
jobtype               opt
scf_guess             read
scf_algorithm         diis
max_scf_cycles        100
geom_opt_max_cycles   300
$end

