$molecule
0 2
C        1.3702042856    0.1722898742   -1.0234739736
C       -0.2738228105   -1.8770960671   -0.3420086374
C       -1.2037652143   -1.2372731909    0.3436083309
C       -1.2413221777    0.1703423799    0.7549835108
C       -0.4736479440    1.2122643190    0.3786350994
N        0.5103073309    1.3547264949   -0.6357420324
H        1.3776119758   -0.5803976259   -1.7886303499
H       -0.1281727675   -2.8952727241   -0.6819342112
H       -2.0659721450   -1.8261351550    0.6866353672
H       -2.0151576671    0.4040006649    1.4833317200
H       -0.6763847410    2.1787575536    0.8400834099
C        1.9332514306    1.0405319344   -0.2613179487
H        2.7419247638    1.5294689403    0.2557561490
$end

$rem
method                b3lyp
basis                 6-31+g(d,p)
unrestricted          true
symmetry              off
sym_ignore            true
incdft                false
incfock               0
scf_convergence       8
thresh                14
jobtype               sp
scf_guess             core
scf_guess_mix         5
scf_algorithm         diis
max_scf_cycles        100
$end

