$molecule
0 2
C        1.1493045402    0.6308558999   -1.2323093714
C       -0.0098309048   -1.8933828448    0.2372522854
C       -1.1726106072   -1.2447231542    0.3187836365
C       -1.4446847978    0.1722064088    0.5345120025
C       -0.5142637702    1.1874223704    0.5906312879
N        0.7398416585    1.0870977917    0.0352180464
H        0.7549760958    0.0388727544   -2.0515795574
H        0.2074036234   -2.9518470615    0.1174985496
H       -2.0764771635   -1.8748754000    0.3314822689
H       -2.4725810317    0.4188146132    0.7794072720
H       -0.7264907012    2.1002466433    1.1535790173
C        2.1907060328    0.9907670012   -0.5499296729
H        3.2297613453    0.9847523758   -0.2546193308
$end

$rem
method                b3lyp
basis                 6-31g(d)
unrestricted          true
symmetry              off
sym_ignore            true
incdft                false
incfock               0
scf_convergence       8
thresh                14
jobtype               sp
scf_guess             core
scf_guess_mix         5
scf_algorithm         diis
max_scf_cycles        100
$end

