$molecule
0 2
C        1.3274956951    0.0140067812    0.0229865284
C        0.5619765909   -0.9763582015    0.8069854371
C       -0.7908486313   -0.9677433381    0.8238110636
C       -1.5457866721    0.1169311505    0.2164823651
C       -0.9249476557    1.1174589417   -0.4409778531
N        0.4677813203    1.1024524166   -0.7105698846
H        2.2422554878    0.4022316366    0.4762899542
H        1.1251655670   -1.6818633271    1.4146285797
H       -1.3290477846   -1.7094985946    1.4062270960
H       -2.6126900720    0.1855749833    0.4017185204
H       -1.4292314527    2.0342469995   -0.7309663062
C        1.1208330676    0.0991195199   -1.4232777699
H        1.7870445397    0.2634410319   -2.2633377306
$end

$rem
method                b3lyp
basis                 6-31+g(d,p)
unrestricted          true
symmetry              off
sym_ignore            true
incdft                false
incfock               0
scf_convergence       8
thresh                14
jobtype               sp
scf_guess             read
scf_algorithm         diis
max_scf_cycles        100
scf_final_print       1
$end

