$molecule
0 2
C        1.2736732341   -0.0534242323    0.0027283585
C        0.5501548232   -0.9936974482    0.8981708969
C       -0.8009069568   -0.9377320547    0.9572166765
C       -1.4793165355    0.0525634484    0.1618388328
C       -0.7614180360    1.0566263169   -0.4528846233
N        0.6475351660    1.3126029528   -0.2875465920
H        2.3384218916    0.0591125103    0.2050441740
H        1.1341452864   -1.6663502848    1.5181221891
H       -1.3706767583   -1.6128637231    1.5886508741
H       -2.5553092139    0.0228541139    0.0284397844
H       -1.2640146615    1.8435008099   -1.0076328227
C        0.8544953604    0.3346238491   -1.3447408673
H        1.3831882603    0.5552380280   -2.2666198908
$end

$rem
method                b3lyp
basis                 6-31+g(d,p)
unrestricted          true
symmetry              off
sym_ignore            true
incdft                false
incfock               0
scf_convergence       8
thresh                14
jobtype               rpath
scf_guess             core
scf_guess_mix         5
scf_algorithm         diis
max_scf_cycles        100
rpath_direction       1
rpath_tol_displacement 1000
rpath_max_cycles      50
geom_opt_max_cycles   300
geom_opt_hessian      read
$end

