$molecule
0 2
C        1.3039598563    0.7965268478   -0.7228682282
C        0.4951139294   -1.2759311870    0.5015500873
C       -0.8219571704   -0.9828837305    0.6939385684
C       -1.5121013535    0.2121170641    0.2815789290
C       -0.9986928380    1.3072033124   -0.3890205457
N        0.2333656991    1.6160727984   -0.8545094442
H        2.2045231627    1.2285811855   -1.1647175560
H        0.8540334735   -2.2313644080    0.8789290893
H       -1.4267849242   -1.7242806425    1.2122957954
H       -2.5704297854    0.2642518236    0.5255433424
H       -1.7231217941    2.0982751265   -0.5952876469
C        1.4775882790   -0.4509772900   -0.1549758542
H        2.4845034657   -0.8575909002   -0.2124565365
$end

$rem
method                b3lyp
basis                 6-31g(d)
unrestricted          true
symmetry              off
sym_ignore            true
incdft                false
incfock               0
scf_convergence       8
thresh                14
jobtype               opt
scf_guess             core
scf_guess_mix         5
scf_algorithm         diis
max_scf_cycles        100
geom_opt_max_cycles   300
$end

