$molecule
0 2
C        1.2725553019   -0.0531773476    0.0014667590
C        0.5492902231   -0.9929708636    0.8980845249
C       -0.7995677563   -0.9381843530    0.9552754992
C       -1.4783302433    0.0528452432    0.1612886339
C       -0.7611222793    1.0568683939   -0.4493902637
N        0.6494875936    1.3137527056   -0.2900699010
H        2.3377983611    0.0597208230    0.2032139133
H        1.1341628921   -1.6641441752    1.5196038878
H       -1.3709404347   -1.6133275932    1.5864085091
H       -2.5548752319    0.0219903262    0.0288267120
H       -1.2628308306    1.8435374036   -1.0065175951
C        0.8483086396    0.3311155715   -1.3450481605
H        1.3860356248    0.5550281518   -2.2623555287
$end

$rem
method                b3lyp
basis                 6-31+g(d,p)
unrestricted          true
symmetry              off
sym_ignore            true
incdft                false
incfock               0
scf_convergence       8
thresh                14
jobtype               freq
scf_guess             read
scf_algorithm         diis
max_scf_cycles        100
$end

