$molecule
0 2
C        1.2905283460    0.2925145518    0.2322179982
C        0.5843643540   -0.9405500205    0.7767208684
C       -0.8129838428   -0.9359837358    0.8701676080
C       -1.4738120552    0.1258475996    0.2961946391
C       -0.7014850826    0.9989361257   -0.5993071227
N        0.6287728206    1.4935101414   -0.3226449842
H        2.3294102039    0.6674707620    0.2838752871
H        1.0845957191   -1.9176712039    0.8824582508
H       -1.3601990595   -1.7889170671    1.2741348451
H       -2.5459127439    0.2609897131    0.3748182401
H       -1.3120980779    1.8127054557   -1.0194981861
C        0.7696962707    0.2027536176   -1.1656138614
H        1.4690950076   -0.2985516535   -1.8827365923
$end

$rem
method                b3lyp
basis                 6-31g(d)
unrestricted          true
symmetry              off
sym_ignore            true
incdft                false
incfock               0
scf_convergence       8
thresh                14
jobtype               freq
scf_guess             read
scf_algorithm         diis
max_scf_cycles        100
$end

