$molecule
0 2
C        1.6803072342    0.3945463122   -0.1790683170
C        1.1263490106   -0.8348011062   -0.2673907334
C       -0.3164220115   -1.0621630924   -0.0827497347
C       -1.1559921890    0.3283053733    0.0476775594
C       -0.3270390790    1.5323805493   -0.1490913060
N        0.9598779594    1.5896965768   -0.1665298860
H        2.7571846633    0.5230636471   -0.2509313291
H        1.7481625718   -1.6980040683   -0.4919427787
H       -0.7580703293   -1.9017057218   -0.6227678223
H       -2.1629936635    0.3924217203   -0.3692168243
H       -0.8669858804    2.4604237218   -0.3527428824
C       -0.9581665579   -0.6145042569    1.1513137541
H       -1.7262117293   -1.1096596548    1.7334402998
****
C        1.0985094330    0.1839562896    0.5374820328
C        0.8754695473   -0.9762216475   -0.4447827596
C       -0.4334755098   -0.9835648469   -0.7449802152
C       -1.0769748012    0.1722851904    0.0476278394
C       -0.3965941324    1.4571040686   -0.4665545873
N        0.8522713095    1.4877023731   -0.2063691292
H        2.0457613317    0.2012382485    1.0744545060
H        1.6541697789   -1.6259804609   -0.8287524447
H       -0.9627012729   -1.6343201000   -1.4325359913
H       -2.1640456805    0.1737690686    0.1282376698
H       -0.8995453322    2.2510901379   -1.0160900970
C       -0.2101619057    0.0339504048    1.3035616432
H       -0.3826827659   -0.7410087262    2.0487015330
$end

$rem
method                b3lyp
basis                 6-31g(d)
unrestricted          true
symmetry              off
sym_ignore            true
incdft                false
incfock               0
scf_convergence       8
thresh                14
jobtype               fsm
scf_guess             core
scf_guess_mix         5
scf_algorithm         diis
max_scf_cycles        100
fsm_nnode             21
fsm_ngrad             6
fsm_mode              2
fsm_opt_mode          2
$end

