$molecule
0 2
C        1.3666804862    0.2926692517    0.2507176877
C        1.0322188276   -0.8421316946   -0.5780694130
C       -0.3969526543   -1.0249879706   -0.3808636951
C       -1.1287860054    0.3408361157    0.0261340738
C       -0.3903912191    1.5467467748   -0.3769776505
N        0.8744323055    1.5453022386   -0.1601403627
H        2.3229198669    0.3416930346    0.7699811991
H        1.7095049962   -1.6703717282   -0.7558287194
H       -0.9932038677   -1.8218894196   -0.8178528545
H       -2.2159672318    0.3319481360   -0.0335630720
H       -0.8669992837    2.3863184024   -0.8810126839
C       -0.4526338754   -0.4928670327    1.0335573954
H       -0.9065641245   -0.9587048489    1.9072309390
$end

$rem
method                b3lyp
basis                 6-31g(d)
unrestricted          true
symmetry              off
sym_ignore            true
incdft                false
incfock               0
scf_convergence       8
thresh                14
jobtype               sp
scf_guess             read
scf_algorithm         diis
max_scf_cycles        100
$end

