$molecule
0 2
C        1.5157495165    0.4444648067   -0.1101777649
C        0.6818932554   -0.8508745617   -0.0533936825
C       -0.2650212575   -0.4767056933   -1.1988886020
C       -1.0970490856    0.4074320596    0.7431289970
C       -0.5846099721    0.8972037938   -0.6217978296
N        0.8116154373    1.4626217597   -0.4264690190
H        2.5783909382    0.5144159589    0.1119430306
H        1.2215802609   -1.7970991539   -0.0737660402
H       -1.0169569158   -1.1599751305   -1.5887408770
H       -1.9024212022    0.8642625520    1.3067584500
H       -1.2249706912    1.5845764800   -1.1708004473
C       -0.3351889730   -0.6459652175    1.0896661741
H       -0.3830113104   -1.2443576537    1.9925376112
$end

$rem
method                b3lyp
basis                 6-31+g(d,p)
unrestricted          true
symmetry              off
sym_ignore            true
incdft                false
incfock               0
scf_convergence       6
thresh                14
jobtype               sp
scf_guess             read
scf_algorithm         diis
max_scf_cycles        100
stability_analysis    true
max_cis_cycles        100
cis_n_roots           4
$end

