$molecule
0 2
C        1.5168689536    0.5242223402   -0.1335668539
C        0.8415326074   -0.7932127849   -0.0142302045
C       -0.4452606402   -0.6680305937   -0.7493828780
C       -1.1064418319    0.5935781039    0.8179148133
C       -0.6203954917    0.8945633707   -0.5947820104
N        0.7410428610    1.4824581010   -0.4963198761
H        2.5655501337    0.6963469999    0.1000888853
H        1.3787902587   -1.7345614065    0.0423412576
H       -0.8431953738   -1.3317403152   -1.5099801617
H       -1.4065317548    1.2498629148    1.6288610041
H       -1.2639401505    1.4566370593   -1.2723532311
C       -0.5653792354   -0.7596080337    0.7740319359
H       -0.7926403361   -1.6105157558    1.4073773196
$end

$rem
method                b3lyp
basis                 6-31+g(d,p)
unrestricted          true
symmetry              off
sym_ignore            true
incdft                false
incfock               0
scf_convergence       6
thresh                14
jobtype               sp
scf_guess             read
scf_algorithm         diis
max_scf_cycles        100
stability_analysis    true
max_cis_cycles        100
cis_n_roots           4
$end

