$molecule
0 2
C        1.3119832026    0.3024639842    0.2418450666
C        0.6067813895   -1.0007324541   -0.1827277502
C       -0.6879962090   -0.4652710104   -0.8442673523
C       -1.0782594737    0.1910344549    0.4506508298
C       -0.5191779217    1.0594042307   -0.6924931429
N        0.8290508102    1.4231658196   -0.4713972156
H        2.3485696173    0.2892655803    0.5603271077
H        1.1221951757   -1.9351789616   -0.3745474573
H       -1.2950975532   -0.9364177124   -1.6091722852
H       -2.0524462796    0.3360300536    0.9040256583
H       -1.1654104444    1.7420801816   -1.2331782202
C        0.2167898071   -0.3445443101    1.1121710373
H        0.3630178796   -0.6612998559    2.1387637239
****
C        1.5755634212    0.4906075893   -0.1795739216
C        0.8445012075   -0.7985087638   -0.0029920015
C       -0.4636994652   -0.6147519313   -0.7007187665
C       -0.9629121364    0.6735012916    0.9110111818
C       -0.5540208079    0.9501993578   -0.5412944589
N        0.8339993481    1.4758685212   -0.5243195295
H        2.6430213796    0.6148883734   -0.0003370018
H        1.3472799680   -1.7608520492    0.0053276835
H       -0.9186696805   -1.2635459085   -1.4436315414
H       -1.9029497367    0.9725376721    1.3606415495
H       -1.2157265555    1.5368358506   -1.1782102551
C       -0.4785850835   -0.7176475485    0.8320866590
H       -0.7478018587   -1.5591324547    1.4620104028
$end

$rem
method                b3lyp
basis                 6-31g(d)
unrestricted          true
symmetry              off
sym_ignore            true
incdft                false
incfock               0
scf_convergence       8
thresh                14
jobtype               fsm
scf_guess             core
scf_guess_mix         5
scf_algorithm         diis
max_scf_cycles        100
fsm_nnode             21
fsm_ngrad             6
fsm_mode              2
fsm_opt_mode          2
$end

