$molecule
0 2
C        1.5760032086    0.4907371161   -0.1800286475
C        0.8451774152   -0.7986862903   -0.0034036254
C       -0.4632148507   -0.6151172297   -0.7009119622
C       -0.9624493212    0.6740916191    0.9121032665
C       -0.5545319747    0.9502471302   -0.5408531976
N        0.8334671192    1.4757489118   -0.5242110084
H        2.6434292726    0.6151226340   -0.0006015000
H        1.3464904271   -1.7618108841    0.0060231859
H       -0.9179475460   -1.2629878096   -1.4447232441
H       -1.9033628835    0.9727973629    1.3602304171
H       -1.2164994495    1.5364855537   -1.1779908331
C       -0.4782360189   -0.7177882781    0.8321180994
H       -0.7483253983   -1.5588398360    1.4622490495
$end

$rem
method                b3lyp
basis                 6-31g(d)
unrestricted          true
symmetry              off
sym_ignore            true
incdft                false
incfock               0
scf_convergence       8
thresh                14
jobtype               opt
scf_guess             core
scf_guess_mix         5
scf_algorithm         diis
max_scf_cycles        100
geom_opt_max_cycles   300
$end

