$molecule
0 2
C        1.5665938282    0.4363573417   -0.1784117570
C        0.7658214390   -0.8323425733   -0.0959700448
C       -0.5141689661   -0.5238099277   -0.7774836087
C       -1.0187979846    0.6040070646    0.8009124989
C       -0.5385142531    0.9772822943   -0.6013712753
N        0.8663819355    1.4651735378   -0.4897796556
H        2.5723112745    0.5075890493    0.2344216201
H        1.2112940433   -1.8149640501   -0.2024218305
H       -1.1522684720   -1.1202237650   -1.4253333037
H       -2.0787273175    0.6129867002    1.0082718811
H       -1.1741499514    1.6203001106   -1.2052515611
C       -0.2414396102   -0.6454373532    1.0162994894
H       -0.2856985313   -1.2890994174    1.8986470831
$end

$rem
method                b3lyp
basis                 6-31g(d)
unrestricted          true
symmetry              off
sym_ignore            true
incdft                false
incfock               0
scf_convergence       8
thresh                14
jobtype               freq
scf_guess             read
scf_algorithm         diis
max_scf_cycles        100
$end

