$molecule
0 2
C        1.5371975125    0.4849760156   -0.1473826323
C        0.7765565379   -0.8139159279   -0.0211928841
C       -0.3851787580   -0.5876266771   -0.9345417515
C       -1.0615347245    0.5517249280    0.8091120967
C       -0.5917514514    0.9076941355   -0.5968027692
N        0.7969573414    1.4696070609   -0.4959373572
H        2.5927641320    0.6097071519    0.0889906793
H        1.3005874190   -1.7671034501   -0.0093837896
H       -0.9489029151   -1.2722554163   -1.5510746172
H       -1.7621832170    1.0453255935    1.4677938260
H       -1.2397514975    1.5254240083   -1.2177701301
C       -0.4085492315   -0.6805143467    0.9405927094
H       -0.6275737134   -1.4752240640    1.6501261555
$end

$rem
method                b3lyp
basis                 6-31g(d)
unrestricted          true
symmetry              off
sym_ignore            true
incdft                false
incfock               0
scf_convergence       6
thresh                14
jobtype               sp
scf_guess             read
scf_algorithm         diis
max_scf_cycles        100
stability_analysis    true
max_cis_cycles        100
cis_n_roots           4
$end

