$molecule
0 2
C        1.5434760884    0.3858143662   -0.1753184021
C        0.6693660864   -0.8625081413   -0.0379138367
C       -0.5043027226   -0.4499525031   -0.9576563082
C       -1.0965489010    0.3134439487    0.6396653382
C       -0.5173978408    0.9939002290   -0.6010755935
N        0.8727826079    1.4447284963   -0.4575641644
H        2.6060839659    0.4219049182    0.0550351109
H        1.1473966534   -1.8362532132   -0.1394733930
H       -1.1132032332   -1.0316439148   -1.6356304807
H       -2.0691905420    0.6006635492    1.0295884180
H       -1.1801588377    1.6853956861   -1.1129971504
C       -0.1937864422   -0.6066654359    1.1967551791
H       -0.1890614072   -1.0851859466    2.1660495624
$end

$rem
method                b3lyp
basis                 6-31+g(d,p)
unrestricted          true
symmetry              off
sym_ignore            true
incdft                false
incfock               0
scf_convergence       8
thresh                14
jobtype               sp
scf_guess             core
scf_guess_mix         5
scf_algorithm         diis
max_scf_cycles        100
$end

