$molecule
0 2
C        1.5496462726    0.3496525271   -0.1427244368
C        0.6532827243   -0.8791157454   -0.0374520751
C       -0.6199106274   -0.4064444258   -0.8297216664
C       -1.1644394237    0.1430031707    0.5109342505
C       -0.4681685773    1.0529227793   -0.6025780963
N        0.9081933687    1.4306131125   -0.4105398952
H        2.6086821006    0.3597578582    0.1064054818
H        1.1110930083   -1.8548523534   -0.2086005971
H       -1.1482427887   -0.9240913608   -1.6236226767
H       -2.1766639571    0.3938210758    0.8094396983
H       -1.1273601757    1.7761446239   -1.0697503781
C       -0.1797244718   -0.6564017544    1.2228456146
H        0.0536125476   -0.7850095071    2.2753647762
$end

$rem
method                b3lyp
basis                 6-31+g(d,p)
unrestricted          true
symmetry              off
sym_ignore            true
incdft                false
incfock               0
scf_convergence       8
thresh                14
jobtype               sp
scf_guess             read
scf_algorithm         diis
max_scf_cycles        100
scf_final_print       1
$end

