$molecule
0 2
C        1.3119832026    0.3024639842    0.2418450666
C        0.6067813895   -1.0007324541   -0.1827277502
C       -0.6879962090   -0.4652710104   -0.8442673523
C       -1.0782594737    0.1910344549    0.4506508298
C       -0.5191779217    1.0594042307   -0.6924931429
N        0.8290508102    1.4231658196   -0.4713972156
H        2.3485696173    0.2892655803    0.5603271076
H        1.1221951757   -1.9351789616   -0.3745474573
H       -1.2950975532   -0.9364177124   -1.6091722851
H       -2.0524462795    0.3360300536    0.9040256583
H       -1.1654104444    1.7420801816   -1.2331782201
C        0.2167898071   -0.3445443101    1.1121710373
H        0.3630178796   -0.6612998559    2.1387637239
****
C        1.6826639957    0.4587517851   -0.3388208191
C        1.1426541297   -0.8355850335   -0.4014207173
C       -0.3451988663   -0.7180555635   -0.4479183011
C       -1.2132615046    0.6460366786    0.9261439568
C       -0.5154693824    0.8524799125   -0.4186001268
N        0.8090475693    1.4602868925   -0.3452726768
H        2.7465375068    0.6792139602   -0.2624248615
H        1.7108777815   -1.7590006059   -0.3762547155
H       -0.8308330116   -1.2905003643   -1.2490750641
H       -1.6205757454    1.3568447222    1.6388084617
H       -1.1184561669    1.3185197273   -1.2075236798
C       -1.0834543536   -0.6848535522    0.9007236441
H       -1.3645319524   -1.4841385590    1.5816348993
$end

$rem
method                b3lyp
basis                 6-31g(d)
unrestricted          true
symmetry              off
sym_ignore            true
incdft                false
incfock               0
scf_convergence       8
thresh                14
jobtype               fsm
scf_guess             core
scf_guess_mix         5
scf_algorithm         diis
max_scf_cycles        100
fsm_nnode             21
fsm_ngrad             6
fsm_mode              2
fsm_opt_mode          2
$end

