$molecule
0 2
C        1.6831453044    0.4587545760   -0.3392167030
C        1.1429896624   -0.8354919986   -0.4011608657
C       -0.3449165255   -0.7180911835   -0.4471978002
C       -1.2134761665    0.6460818054    0.9263898064
C       -0.5153496924    0.8525959529   -0.4181831336
N        0.8093529570    1.4601711812   -0.3450224016
H        2.7471040179    0.6792975566   -0.2637081979
H        1.7113625920   -1.7587928270   -0.3767725623
H       -0.8308086369   -1.2903499545   -1.2483563531
H       -1.6214309565    1.3566951813    1.6388101066
H       -1.1181864428    1.3182111313   -1.2075476608
C       -1.0839680141   -0.6847866488    0.9007669795
H       -1.3658180991   -1.4842947723    1.5811987857
$end

$rem
method                b3lyp
basis                 6-31g(d)
unrestricted          true
symmetry              off
sym_ignore            true
incdft                false
incfock               0
scf_convergence       8
thresh                14
jobtype               opt
scf_guess             core
scf_guess_mix         5
scf_algorithm         diis
max_scf_cycles        100
geom_opt_max_cycles   300
$end

