$molecule
0 2
C        1.5442928244    0.4182702513   -0.1861778306
C        0.7285457093   -0.8543273971   -0.1156981920
C       -0.5250231054   -0.4891610274   -0.8526452250
C       -1.1129416971    0.3505158839    0.6351322477
C       -0.5118740168    0.9805378851   -0.6255407720
N        0.8426807681    1.4693320598   -0.4542173349
H        2.5660942257    0.4919781108    0.1747624510
H        1.2649758466   -1.8037079492   -0.2657202140
H       -1.1393536475   -1.1234533007   -1.4743969711
H       -1.9274314557    0.8584071183    1.1586384540
H       -1.1708011866    1.5941976996   -1.2401369079
C       -0.2473912009   -0.6483063033    1.1718393897
H       -0.3363175888   -1.2706409922    2.0436251848
$end

$rem
method                b3lyp
basis                 6-31g(d)
unrestricted          true
symmetry              off
sym_ignore            true
incdft                false
incfock               0
scf_convergence       8
thresh                14
jobtype               sp
scf_guess             core
scf_guess_mix         5
scf_algorithm         diis
max_scf_cycles        100
$end

