$molecule
0 2
C        1.1539367683    0.1570357881    0.4046694211
C        0.8941989954   -0.9692349787   -0.5897704539
C       -0.5040175243   -1.0156314701   -0.4941168848
C       -1.0885210295    0.2942758132    0.0493381493
C       -0.3639745787    1.4982520023   -0.5020977489
N        0.8996541443    1.4615896558   -0.2906230978
H        2.0972965999    0.1577065598    0.9474539008
H        1.5809855740   -1.6286134427   -1.1003544089
H       -1.1629887050   -1.8263835181   -0.7933047980
H       -2.1653977568    0.3135143494    0.1975884463
H       -0.8334022982    2.2973513379   -1.0718682761
C       -0.1717451210   -0.1580714850    1.1411728921
H       -0.3786728435   -0.6024897013    2.1037988077
$end

$rem
method                b3lyp
basis                 6-31+g(d,p)
unrestricted          true
symmetry              off
sym_ignore            true
incdft                false
incfock               0
scf_convergence       8
thresh                14
jobtype               sp
scf_guess             core
scf_guess_mix         5
scf_algorithm         diis
max_scf_cycles        100
$end

