$molecule
0 2
C        1.6725126043    0.3311012349   -0.3221760064
C        1.0791593678   -0.8827989388   -0.3052612500
C       -0.3519489594   -1.0536759781   -0.0040982586
C       -1.1389924911    0.3670509865    0.1156775950
C       -0.2941946362    1.5325435946   -0.2059126981
N        0.9887006993    1.5477673956   -0.3212230868
H        2.7442856411    0.4217934374   -0.4783777125
H        1.6580595472   -1.7760084662   -0.5270942624
H       -0.8560958251   -1.9047381270   -0.4656933304
H       -2.1728038602    0.4426580130   -0.2271090131
H       -0.8220613849    2.4652665110   -0.4194691207
C       -0.8849654229   -0.5251033444    1.2498676945
H       -1.6216552800   -0.9658563180    1.9108694498
****
C        1.1400153431    0.1762501801    0.4456666585
C        0.8120249749   -1.0245318244   -0.4559553607
C       -0.5154655832   -1.0057803735   -0.6585373865
C       -1.0649383641    0.2084835987    0.1169198881
C       -0.3891894785    1.4437576316   -0.5126244718
N        0.8759768936    1.4474915353   -0.3467152759
H        2.1249101250    0.1898589474    0.9101670535
H        1.5411375765   -1.7178911861   -0.8606001271
H       -1.1132959066   -1.6735259452   -1.2693243002
H       -2.1423904365    0.2492290372    0.2771646915
H       -0.9092569034    2.2248052473   -1.0647220007
C       -0.1109968092    0.1063244150    1.3116636868
H       -0.2485314315   -0.6244712633    2.1068969444
$end

$rem
method                b3lyp
basis                 6-31g(d)
unrestricted          true
symmetry              off
sym_ignore            true
incdft                false
incfock               0
scf_convergence       8
thresh                14
jobtype               fsm
scf_guess             core
scf_guess_mix         5
scf_algorithm         diis
max_scf_cycles        100
fsm_nnode             21
fsm_ngrad             6
fsm_mode              2
fsm_opt_mode          2
$end

