$molecule
0 2
C        1.3236819210    0.2417502468    0.1870109424
C        0.8968014870   -0.9569624109   -0.5111648071
C       -0.4829110703   -0.9836692483   -0.5218132920
C       -1.0697564635    0.2903088563    0.0371545080
C       -0.3834153954    1.5147167270   -0.4650887790
N        0.8903593883    1.5006483408   -0.3283440732
H        2.3610947572    0.2876659382    0.5516128745
H        1.5565147083   -1.8007840732   -0.6850016178
H       -1.0953970259   -1.8370103331   -0.8015077910
H       -2.1696283982    0.3469946855    0.0791026760
H       -0.9013856611    2.3968962641   -0.8340090100
C       -0.3044450242   -0.1470860876    1.2828278108
H       -0.6641609981   -0.8741679949    2.0111065075
$end

$rem
method                b3lyp
basis                 6-31g(d)
unrestricted          true
symmetry              off
sym_ignore            true
incdft                false
incfock               0
scf_convergence       8
thresh                14
jobtype               freq
scf_guess             read
scf_algorithm         diis
max_scf_cycles        100
$end

