$molecule
0 2
C        1.5767691825    0.4213666559   -0.1576053980
C        0.8156650881   -0.8229764499    0.1096785825
C       -0.5524954911   -0.9776632679   -0.5327645269
C       -1.1159425830    0.3309439894   -0.0016188268
C       -0.3588991119    1.5756439242   -0.2754661395
N        0.9707744973    1.5920627324   -0.3456524051
H        2.6638320176    0.4005851631   -0.2041885756
H        1.3918924943   -1.7363941838    0.2476437722
H       -0.9903885849   -1.7662940803   -1.1286850695
H       -2.2009376715    0.4097478073    0.0414728889
H       -0.8860700760    2.5147907341   -0.4321474119
C       -0.4778645425   -0.7121652157    0.9002041232
H       -0.8363352189   -1.2296478088    1.7791289863
$end

$rem
method                b3lyp
basis                 6-31g(d)
unrestricted          true
symmetry              off
sym_ignore            true
incdft                false
incfock               0
scf_convergence       8
thresh                14
jobtype               opt
scf_guess             core
scf_guess_mix         5
scf_algorithm         diis
max_scf_cycles        100
geom_opt_max_cycles   300
$end

