$molecule
0 2
C        1.6972968151    0.2857779795   -0.3293902075
C        1.1156163233   -0.9746863696   -0.1579400852
C       -0.3344249395   -1.0124754746    0.1093224141
C       -1.1935581559    0.0708540174   -0.5278534516
C       -0.4017701500    1.2410499860    0.0194188745
N        0.9971024879    1.4088652819   -0.2503268309
H        2.7616493263    0.3843098740   -0.5399281754
H        1.6985142330   -1.8883326426   -0.2169491222
H       -0.7991976302   -1.9874999512    0.2381869846
H       -2.1047485443    0.0151375592   -1.1073357752
H       -0.9309030126    2.1898026368    0.0673017701
C       -0.9292891026    0.1350830954    0.9143360449
H       -1.5762876505    0.1321140076    1.7811575598
$end

$rem
method                b3lyp
basis                 6-31+g(d,p)
unrestricted          true
symmetry              off
sym_ignore            true
incdft                false
incfock               0
scf_convergence       8
thresh                14
jobtype               sp
scf_guess             core
scf_guess_mix         5
scf_algorithm         diis
max_scf_cycles        100
$end

