$molecule
0 2
C        1.6972694309    0.2877733437   -0.2175751338
C        1.0902557585   -0.9150553610   -0.1129985818
C       -0.3618485362   -1.0474943635    0.0890677221
C       -1.1405378472    0.3809635904   -0.0225078153
C       -0.2578247154    1.4999963778   -0.4004543629
N        1.0304887677    1.4986904788   -0.4080281863
H        2.7791331954    0.3568331895   -0.2964601441
H        1.6744799620   -1.8288840867   -0.1888084605
H       -0.8370377445   -1.9446740523   -0.3118577757
H       -2.1406064937    0.4183947886   -0.4588395517
H       -0.7544626997    2.4045882195   -0.7598849679
C       -0.9923357349   -0.3753114904    1.2230470450
H       -1.7869733424   -0.7358206346    1.8653002126
****
C        1.6345876697    0.2628461681   -0.3411623177
C        1.1268899794   -1.0226477887   -0.3092393138
C       -0.2261782094   -1.4390623092   -0.0422393701
C       -1.2895792873   -0.6347983208    0.2406459205
C       -0.2238538503    1.6683943240    0.1543809253
N        1.0832465802    1.4834035166   -0.1465083426
H        2.7005565157    0.3283376220   -0.5705167714
H        1.8421869683   -1.8157113898   -0.5134749221
H       -0.4068025517   -2.5117294086   -0.0719383591
H       -2.2478197809   -1.1190287534    0.4178652959
H       -0.4685567006    2.7259645468    0.2755584749
C       -1.2864014133    0.8031082457    0.3334210568
H       -2.2382759201    1.2709235473    0.5732077233
$end

$rem
method                b3lyp
basis                 6-31g(d)
unrestricted          true
symmetry              off
sym_ignore            true
incdft                false
incfock               0
scf_convergence       8
thresh                14
jobtype               fsm
scf_guess             core
scf_guess_mix         5
scf_algorithm         diis
max_scf_cycles        100
fsm_nnode             21
fsm_ngrad             6
fsm_mode              2
fsm_opt_mode          2
$end

