$molecule
0 2
C        1.6341641767    0.2628679306   -0.3419338918
C        1.1268549668   -1.0228486149   -0.3089403700
C       -0.2262804931   -1.4391707538   -0.0426398678
C       -1.2895433791   -0.6347394603    0.2401593519
C       -0.2239547606    1.6684870351    0.1540309163
N        1.0829343763    1.4836337744   -0.1482593592
H        2.7004358947    0.3283707347   -0.5699365830
H        1.8427577260   -1.8156454228   -0.5117634122
H       -0.4071311772   -2.5118234283   -0.0724798832
H       -2.2478354013   -1.1188935213    0.4172191863
H       -0.4683187796    2.7259834995    0.2760679781
C       -1.2861699549    0.8030970787    0.3337860626
H       -2.2379131948    1.2706811484    0.5746898721
$end

$rem
method                b3lyp
basis                 6-31g(d)
unrestricted          true
symmetry              off
sym_ignore            true
incdft                false
incfock               0
scf_convergence       8
thresh                14
jobtype               opt
scf_guess             core
scf_guess_mix         5
scf_algorithm         diis
max_scf_cycles        100
geom_opt_max_cycles   300
$end

