$molecule
0 2
C        1.6927699040    0.2588535677   -0.2991790499
C        1.1312906710   -0.9537918318   -0.1373054878
C       -0.3221313649   -1.0826897546    0.1334254348
C       -1.1721837208    0.1004379750   -0.3303298763
C       -0.3178723563    1.4206300636   -0.2916302864
N        0.9814877577    1.4530614821   -0.2498698001
H        2.7614700359    0.3676429660   -0.4659432616
H        1.7305500778   -1.8474385820   -0.3062396812
H       -0.7066697084   -2.0876506513   -0.0752902777
H       -2.1530331945   -0.1426144045   -0.7528279630
H       -0.8003756700    2.4069987973   -0.2119196833
C       -1.0304595856   -0.0652618429    1.1042055834
H       -1.8140786945    0.1615804647    1.8246887820
$end

$rem
method                b3lyp
basis                 6-31g(d)
unrestricted          true
symmetry              off
sym_ignore            true
incdft                false
incfock               0
scf_convergence       8
thresh                14
jobtype               freq
scf_guess             read
scf_algorithm         diis
max_scf_cycles        100
$end

