$molecule
0 2
C        1.5404481069    0.3533039863   -0.1459713907
C        0.6541557698   -0.8818156118   -0.0422716360
C       -0.6263990369   -0.4224625202   -0.8282597536
C       -1.1675337861    0.1249516880    0.5113350496
C       -0.4835393717    1.0394290617   -0.6064620589
N        0.8902065643    1.4288125494   -0.4144075682
H        2.5952945101    0.3715749375    0.1188188954
H        1.1168405453   -1.8554293134   -0.2136583156
H       -1.1516095290   -0.9414060931   -1.6236447970
H       -2.1794905964    0.3688445792    0.8160856865
H       -1.1497112826    1.7576362622   -1.0715013955
C       -0.1646605617   -0.6516902820    1.2267076423
H        0.1259986679   -0.6917492440    2.2732296417
$end

$rem
method                b3lyp
basis                 6-31+g(d,p)
unrestricted          true
symmetry              off
sym_ignore            true
incdft                false
incfock               0
scf_convergence       6
thresh                14
jobtype               sp
scf_guess             read
scf_algorithm         diis
max_scf_cycles        100
stability_analysis    true
max_cis_cycles        100
cis_n_roots           4
$end

