$molecule
0 2
C        1.3151027935    0.3012423683    0.2424793701
C        0.6079990778   -0.9997781248   -0.1847108476
C       -0.6875713792   -0.4639940429   -0.8464339154
C       -1.0789587822    0.1903151535    0.4517509954
C       -0.5226497535    1.0618203701   -0.6902516796
N        0.8259611950    1.4212460917   -0.4674647155
H        2.3529844647    0.2887903507    0.5534157019
H        1.1207086068   -1.9358306930   -0.3734148954
H       -1.2903210865   -0.9334979978   -1.6148359459
H       -2.0530641835    0.3350704327    0.9041662727
H       -1.1691861356    1.7472428380   -1.2252741464
C        0.2171878551   -0.3458057880    1.1129540776
H        0.3618073278   -0.6668209588    2.1376197284
$end

$rem
method                b3lyp
basis                 6-31+g(d,p)
unrestricted          true
symmetry              off
sym_ignore            true
incdft                false
incfock               0
scf_convergence       8
thresh                14
jobtype               sp
scf_guess             read
scf_algorithm         diis
max_scf_cycles        100
scf_final_print       1
$end

