$molecule
0 2
C        1.4013503399    0.3172338705    0.0795560666
C        0.6147584234   -0.9658931029   -0.1480172801
C       -0.6756299217   -0.4556358950   -0.8536519498
C       -1.1053130040    0.1905952288    0.4633145275
C       -0.5200503082    1.0513429833   -0.6623080362
N        0.8439228240    1.4225982673   -0.4298681842
H        2.4090537342    0.3144509717    0.4790876957
H        1.1142896254   -1.9136827708   -0.3314648101
H       -1.2575595411   -0.9537012497   -1.6208076668
H       -2.0913171172    0.3521581167    0.8823914992
H       -1.1628450577    1.7469790300   -1.1892258181
C        0.0967980247   -0.4429620852    1.1398512642
H        0.3220389766   -0.6698270218    2.1735224100
$end

$rem
method                b3lyp
basis                 6-31+g(d,p)
unrestricted          true
symmetry              off
sym_ignore            true
incdft                false
incfock               0
scf_convergence       8
thresh                14
jobtype               sp
scf_guess             read
scf_algorithm         diis
max_scf_cycles        100
$end

