$molecule
0 2
C        1.3834103499    0.3449444629    0.1272592852
C        0.6198049440   -0.9565704023   -0.1481462352
C       -0.6591403381   -0.4666362367   -0.8792357556
C       -1.0953438149    0.2083338920    0.4703085380
C       -0.5258152349    1.0371934493   -0.6697406658
N        0.8309288842    1.4293298917   -0.4522370656
H        2.4295416845    0.3545141575    0.4225108570
H        1.1400089896   -1.8998724246   -0.2854477485
H       -1.2340558435   -1.0013116192   -1.6323785415
H       -2.0159332370    0.4750974435    0.9820388509
H       -1.1912130922    1.7064678898   -1.2010286497
C        0.1347098512   -0.3995556310    1.1282024796
H        0.1725938556   -0.8382785300    2.1202743690
$end

$rem
method                b3lyp
basis                 6-31g(d)
unrestricted          true
symmetry              off
sym_ignore            true
incdft                false
incfock               0
scf_convergence       8
thresh                14
jobtype               sp
scf_guess             core
scf_guess_mix         5
scf_algorithm         diis
max_scf_cycles        100
$end

