$molecule
0 2
C        1.2020483640    0.2968718941    0.3973717450
C        0.6518928159   -1.0857946247   -0.1804447208
C       -0.6016286690   -0.8929725633   -0.8934841491
C       -1.0783918419    0.1715732368    0.0909278821
C       -0.4581395169    1.4742866052   -0.4016724722
N        0.8197271425    1.5144425158   -0.2709841290
H        2.2014198242    0.2461062344    0.8153561967
H        1.3416930674   -1.9208643611   -0.2378177434
H       -0.9371846917   -1.1568044435   -1.8916726194
H       -2.1289013505    0.1926387672    0.3862140645
H       -1.0035715481    2.2511441997   -0.9334929961
C        0.0453266776   -0.3687595079    1.0492656845
H       -0.0542902741   -0.7218679533    2.0704332572
$end

$rem
method                b3lyp
basis                 6-31+g(d,p)
unrestricted          true
symmetry              off
sym_ignore            true
incdft                false
incfock               0
scf_convergence       8
thresh                14
jobtype               sp
scf_guess             read
scf_algorithm         diis
max_scf_cycles        100
scf_final_print       1
$end

