$molecule
0 2
C        1.3508310446    0.3425182941    0.2245868273
C        0.7876249647   -0.9055224206   -0.2863464906
C       -0.5186769396   -0.8373084709   -0.8234941720
C       -1.0704899465    0.2435019489    0.0581095270
C       -0.4073055694    1.5410387565   -0.3787639528
N        0.8772628773    1.5512413055   -0.2313299856
H        2.3195977034    0.3360888111    0.7147486835
H        1.4119930239   -1.8020257150   -0.2875602812
H       -1.0629061242   -1.6620716303   -1.2655426713
H       -2.1545702572    0.3036054138    0.1976181895
H       -0.9319215325    2.3800890487   -0.8267526571
C       -0.1614801760   -0.3149532393    1.1758656739
H       -0.4722956096   -1.2144851201    1.7165138671
$end

$rem
method                b3lyp
basis                 6-31g(d)
unrestricted          true
symmetry              off
sym_ignore            true
incdft                false
incfock               0
scf_convergence       8
thresh                14
jobtype               ts
scf_guess             read
scf_algorithm         diis
max_scf_cycles        100
geom_opt_max_cycles   500
geom_opt_dmax         100
geom_opt_tol_gradient 10
geom_opt_hessian      read
$end

