$molecule
0 2
C        1.1722997819    0.2314619880    0.4234871801
C        0.7496865017   -1.0097548267   -0.3627750747
C       -0.5492935903   -0.8794313818   -0.8805066217
C       -1.0742266605    0.1906129619    0.0749795455
C       -0.4215763670    1.4937321563   -0.3917190604
N        0.8529832489    1.5070086776   -0.2304666120
H        2.1498651423    0.1827954822    0.8943296881
H        1.4430258308   -1.8313755913   -0.5196176095
H       -1.0605115782   -1.4506138143   -1.6427081574
H       -2.1406528892    0.2036497210    0.2976581923
H       -0.9436859199    2.2897456886   -0.9183415331
C       -0.0409892156   -0.2400118324    1.1431525371
H       -0.1692608261   -0.7261022465    2.1001800833
$end

$rem
method                b3lyp
basis                 6-31+g(d,p)
unrestricted          true
symmetry              off
sym_ignore            true
incdft                false
incfock               0
scf_convergence       8
thresh                14
jobtype               sp
scf_guess             read
scf_algorithm         diis
max_scf_cycles        100
$end

