$molecule
0 2
C        1.6803072342    0.3945463122   -0.1790683170
C        1.1263490106   -0.8348011062   -0.2673907334
C       -0.3164220115   -1.0621630924   -0.0827497347
C       -1.1559921890    0.3283053733    0.0476775594
C       -0.3270390790    1.5323805493   -0.1490913060
N        0.9598779594    1.5896965768   -0.1665298860
H        2.7571846633    0.5230636471   -0.2509313291
H        1.7481625718   -1.6980040683   -0.4919427787
H       -0.7580703293   -1.9017057218   -0.6227678223
H       -2.1629936635    0.3924217203   -0.3692168243
H       -0.8669858804    2.4604237218   -0.3527428824
C       -0.9581665579   -0.6145042569    1.1513137541
H       -1.7262117293   -1.1096596548    1.7334402998
****
C        0.6600150368    0.0217165596    0.2819036946
C        1.0082375913   -1.2163559005   -0.5239922443
C        0.3011655536   -2.3207575819   -0.5674222112
C       -1.3310395665    1.1494414632    0.5064902769
C       -0.4007858027    1.8290878732   -0.4066090903
N        0.7273857165    1.2250845079   -0.5678448455
H        1.4364215398    0.1496580123    1.0566952574
H        1.9355650069   -1.1238902186   -1.1014598469
H        0.3713647542   -3.2860812697   -1.0527676720
H       -2.3248181208    1.4943473167    0.7691293313
H       -0.6105859327    2.7669064780   -0.9200369027
C       -0.7023045007    0.0362492066    0.9246451061
H       -1.0706212760   -0.7254064469    1.6012691466
$end

$rem
method                b3lyp
basis                 6-31g(d)
unrestricted          true
symmetry              off
sym_ignore            true
incdft                false
incfock               0
scf_convergence       8
thresh                14
jobtype               fsm
scf_guess             core
scf_guess_mix         5
scf_algorithm         diis
max_scf_cycles        100
fsm_nnode             21
fsm_ngrad             6
fsm_mode              2
fsm_opt_mode          2
$end

