$molecule
0 2
C        0.9327496154    0.1509550163    0.3465291766
C        1.0644469533   -1.1312007005   -0.4808630164
C       -0.0170161168   -1.8760574933   -0.5483727795
C       -1.3089864745    0.8903444688    0.3793148352
C       -0.4340963717    1.7272872441   -0.4210101310
N        0.8000649916    1.3722995682   -0.4503065900
H        1.8626320430    0.2877496458    0.9326189468
H        2.0159680678   -1.3982731507   -0.9467818467
H       -0.3249545460   -2.8041374809   -1.0187684640
H       -2.3946049199    0.9555296561    0.3880385520
H       -0.7750245053    2.6431793825   -0.9081502615
C       -0.5397235176   -0.0597518050    0.9828695796
H       -0.9358023642   -0.7826336659    1.6885674101
$end

$rem
method                b3lyp
basis                 6-31g(d)
unrestricted          true
symmetry              off
sym_ignore            true
incdft                false
incfock               0
scf_convergence       8
thresh                14
jobtype               sp
scf_guess             core
scf_guess_mix         5
scf_algorithm         diis
max_scf_cycles        100
$end

