$molecule
0 2
C        1.1304038735    0.2058728035    0.4472418737
C        0.9635959528   -0.9094625034   -0.5792380224
C       -0.4327732329   -1.0285283241   -0.5350123166
C       -1.1026342522    0.2372174244    0.0146348289
C       -0.4222232878    1.4885780494   -0.4856696085
N        0.8336718974    1.5108779240   -0.2302191769
H        2.0531227355    0.2421817237    1.0232438464
H        1.7006385913   -1.5223848018   -1.0774770623
H       -1.0382739155   -1.8645032019   -0.8750759224
H       -2.1835061792    0.1984042600    0.1249700767
H       -0.9118506795    2.2753419835   -1.0556070699
C       -0.2020286659   -0.1924142041    1.1286590747
H       -0.4191738524   -0.6680026297    2.0739874181
$end

$rem
method                b3lyp
basis                 6-31+g(d,p)
unrestricted          true
symmetry              off
sym_ignore            true
incdft                false
incfock               0
scf_convergence       8
thresh                14
jobtype               sp
scf_guess             read
scf_algorithm         diis
max_scf_cycles        100
scf_final_print       1
$end

