$molecule
0 2
C        1.1213686618    0.2184417183    0.4767945193
C        0.8703404599   -0.9788791997   -0.4538239192
C       -0.4538298727   -1.0167708793   -0.6890556272
C       -1.0764290991    0.1611470087    0.0895609418
C       -0.4407543179    1.4362233479   -0.5005631398
N        0.8196305878    1.4895138924   -0.2981166313
H        2.0909332849    0.2665200093    0.9682036017
H        1.6390412408   -1.6319649401   -0.8502391910
H       -1.0071843387   -1.7102617134   -1.3117882474
H       -2.1578147296    0.1536545909    0.2208443485
H       -0.9779026026    2.2064694592   -1.0498015255
C       -0.1490415098    0.0741005365    1.3064974920
H       -0.2783577654   -0.6681938307    2.0914873784
$end

$rem
method                b3lyp
basis                 6-31+g(d,p)
unrestricted          true
symmetry              off
sym_ignore            true
incdft                false
incfock               0
scf_convergence       8
thresh                14
jobtype               sp
scf_guess             core
scf_guess_mix         5
scf_algorithm         diis
max_scf_cycles        100
$end

