$molecule
0 2
C        1.1187211344    0.2262124186    0.4758076972
C        0.8717076848   -0.9809679116   -0.4424830205
C       -0.4495229106   -1.0233109056   -0.6793106180
C       -1.0762950112    0.1562205380    0.0913089130
C       -0.4451104867    1.4277942924   -0.5114998962
N        0.8137958374    1.4907113157   -0.3130860058
H        2.0896756730    0.2831277202    0.9655733606
H        1.6433743730   -1.6348341026   -0.8336170598
H       -0.9986478795   -1.7128342237   -1.3112176556
H       -2.1582381303    0.1437166275    0.2234362696
H       -0.9881667713    2.1886042097   -1.0696600052
C       -0.1490827344    0.0892654167    1.3092065499
H       -0.2722107785   -0.6537053951    2.0955414706
****
C        1.5915560534    0.4038568986   -0.4015746982
C        1.2326624385   -0.9184939181   -0.2197401111
C       -0.0622307331   -1.4509571608    0.1203810849
C       -1.3664923973    0.6865277646    0.2691547711
C       -0.4098913406    1.6398897740   -0.0248094947
N        0.9074062739    1.5695081078   -0.3286538055
H        2.6415186609    0.5624870927   -0.6574742130
H        2.0309931089   -1.6449091882   -0.3515158048
H       -0.1199588073   -2.5336397950    0.2129643870
H       -2.3635984213    1.0685109871    0.4745849906
H       -0.7720165505    2.6703330996   -0.0154478226
C       -1.2072701854   -0.7438136993    0.3359894837
H       -2.1026781001   -1.3092999629    0.5861412326
$end

$rem
method                b3lyp
basis                 6-31g(d)
unrestricted          true
symmetry              off
sym_ignore            true
incdft                false
incfock               0
scf_convergence       8
thresh                14
jobtype               fsm
scf_guess             core
scf_guess_mix         5
scf_algorithm         diis
max_scf_cycles        100
fsm_nnode             21
fsm_ngrad             6
fsm_mode              2
fsm_opt_mode          2
$end

