$molecule
0 2
C        1.5915560534    0.4038568986   -0.4015746982
C        1.2326624385   -0.9184939181   -0.2197401111
C       -0.0622307331   -1.4509571608    0.1203810849
C       -1.3664923973    0.6865277646    0.2691547711
C       -0.4098913406    1.6398897740   -0.0248094947
N        0.9074062739    1.5695081078   -0.3286538055
H        2.6415186609    0.5624870927   -0.6574742130
H        2.0309931089   -1.6449091882   -0.3515158048
H       -0.1199588073   -2.5336397950    0.2129643870
H       -2.3635984213    1.0685109871    0.4745849906
H       -0.7720165505    2.6703330996   -0.0154478226
C       -1.2072701854   -0.7438136993    0.3359894837
H       -2.1026781001   -1.3092999629    0.5861412326
$end

$rem
method                b3lyp
basis                 6-31g(d)
unrestricted          true
symmetry              off
sym_ignore            true
incdft                false
incfock               0
scf_convergence       8
thresh                14
jobtype               opt
scf_guess             core
scf_guess_mix         5
scf_algorithm         diis
max_scf_cycles        100
geom_opt_max_cycles   300
$end

