$molecule
0 2
C        1.1282310772    0.2062317036    0.4520049939
C        0.9624505696   -0.9148579879   -0.5671201834
C       -0.4329751976   -1.0288820820   -0.5255551631
C       -1.1030832298    0.2387587796    0.0153908199
C       -0.4171782309    1.4856148554   -0.4892121855
N        0.8374042644    1.5085097637   -0.2355968477
H        2.0499252085    0.2457672072    1.0316581108
H        1.6965560349   -1.5039672271   -1.0988552471
H       -1.0403964226   -1.8648458146   -0.8651759640
H       -2.1848401477    0.2021763845    0.1235858354
H       -0.9056730070    2.2694323998   -1.0659230858
C       -0.2049091343   -0.1815734643    1.1348471268
H       -0.4165427996   -0.6891860145    2.0643897293
$end

$rem
method                b3lyp
basis                 6-31+g(d,p)
unrestricted          true
symmetry              off
sym_ignore            true
incdft                false
incfock               0
scf_convergence       8
thresh                14
jobtype               freq
scf_guess             read
scf_algorithm         diis
max_scf_cycles        100
$end

