$molecule
0 2
C        1.5089999017    0.4265388136   -0.6385465306
C        1.1661481694   -0.9054052979   -0.4841878083
C       -0.0591463483   -1.4574693570    0.0364358326
C       -1.2942509345    0.6694885230    0.5388933894
C       -0.3879202862    1.6412321155    0.1510362800
N        0.8598316575    1.5860838881   -0.3734139938
H        2.5010633841    0.6002712956   -1.0583315946
H        1.9214356958   -1.6216910074   -0.7975018917
H       -0.1149451273   -2.5431668914    0.0689744672
H       -2.2367519198    1.0406280446    0.9332835615
H       -0.7291471445    2.6686044622    0.2879802403
C       -1.1444055750   -0.7627865845    0.4870537577
H       -1.9909114729   -1.3423280045    0.8483242903
$end

$rem
method                b3lyp
basis                 6-31+g(d,p)
unrestricted          true
symmetry              off
sym_ignore            true
incdft                false
incfock               0
scf_convergence       6
thresh                14
jobtype               sp
scf_guess             read
scf_algorithm         diis
max_scf_cycles        100
stability_analysis    true
max_cis_cycles        100
cis_n_roots           4
$end

