$molecule
0 2
C        1.6858641679    0.4814235335   -0.3113819283
C        1.1527232392   -0.8125245468   -0.4412693886
C       -0.3355325121   -0.7012813414   -0.4721446490
C       -1.2307385698    0.6018136913    0.9484160797
C       -0.5205371053    0.8655087543   -0.3794389028
N        0.8007712646    1.4737891279   -0.2652936708
H        2.7466490521    0.7061859717   -0.2237539064
H        1.7287599644   -1.7298503689   -0.4908812888
H       -0.8233959338   -1.2458214738   -1.2903701817
H       -1.6636349769    1.2797951207    1.6767668089
H       -1.1132461643    1.3616759339   -1.1569535299
C       -1.0767405604   -0.7273199034    0.8780899213
H       -1.3509418657   -1.5533944985    1.5282146367
$end

$rem
method                b3lyp
basis                 6-31+g(d,p)
unrestricted          true
symmetry              off
sym_ignore            true
incdft                false
incfock               0
scf_convergence       6
thresh                14
jobtype               sp
scf_guess             read
scf_algorithm         diis
max_scf_cycles        100
stability_analysis    true
max_cis_cycles        100
cis_n_roots           4
$end

