$molecule
0 2
C        1.5556105413    0.4058003933   -0.4601228858
C        1.1429274140   -0.9071986603   -0.5202895847
C       -0.1404505154   -1.4158598114   -0.1820314224
C       -1.1861038378    0.6637280561    0.7472289298
C       -0.4568447181    1.6130230198   -0.0760800768
N        0.7382517317    1.5239404314   -0.5574954589
H        2.6157568287    0.6341160365   -0.5243654476
H        1.8950832486   -1.6407314418   -0.8124171602
H       -0.3235403859   -2.4704423188   -0.3593361154
H       -1.9702704775    1.0660577176    1.3830628927
H       -0.9961403271    2.5270153423   -0.3499365462
C       -1.0928255244   -0.7070267665    0.5809602911
H       -1.8416236920   -1.3104658673    1.0982920304
$end

$rem
method                b3lyp
basis                 6-31+g(d,p)
unrestricted          true
symmetry              off
sym_ignore            true
incdft                false
incfock               0
scf_convergence       8
thresh                14
jobtype               opt
scf_guess             read
scf_algorithm         diis
max_scf_cycles        100
geom_opt_max_cycles   300
$end

