$molecule
0 2
C        1.6788940560    0.4831173748   -0.3254226191
C        1.1472680733   -0.8115037871   -0.4356721793
C       -0.3414768064   -0.7023947536   -0.4748746117
C       -1.2147508122    0.6013225828    0.9533003207
C       -0.5218949549    0.8645749668   -0.3840361394
N        0.7983363325    1.4779555792   -0.2909041369
H        2.7415504446    0.7077504902   -0.2444427556
H        1.7213677897   -1.7315588368   -0.4442419245
H       -0.8250289056   -1.2467896183   -1.2965906657
H       -1.6238300798    1.2813387197    1.6943853014
H       -1.1308946656    1.3566780121   -1.1523330968
C       -1.0770375642   -0.7266828719    0.8758334228
H       -1.3525029078   -1.5538078583    1.5249990846
$end

$rem
method                b3lyp
basis                 6-31g(d)
unrestricted          true
symmetry              off
sym_ignore            true
incdft                false
incfock               0
scf_convergence       8
thresh                14
jobtype               opt
scf_guess             core
scf_guess_mix         5
scf_algorithm         diis
max_scf_cycles        100
geom_opt_max_cycles   300
$end

