$molecule
0 2
C        1.5035376980    0.4255142910   -0.6445151205
C        1.1644220702   -0.9055780454   -0.4846402596
C       -0.0585517045   -1.4553050711    0.0414482244
C       -1.2909871391    0.6711360798    0.5414218192
C       -0.3878717608    1.6387500233    0.1458513185
N        0.8578212239    1.5846968985   -0.3832079680
H        2.4957645498    0.5966397039   -1.0679234221
H        1.9191119173   -1.6235205895   -0.7965938898
H       -0.1123765554   -2.5415801874    0.0785078455
H       -2.2328185316    1.0423261908    0.9384368455
H       -0.7301868482    2.6672819023    0.2788079180
C       -1.1408808593   -0.7611911964    0.4931705073
H       -1.9869840602   -1.3391700000    0.8592361815
$end

$rem
method                b3lyp
basis                 6-31g(d)
unrestricted          true
symmetry              off
sym_ignore            true
incdft                false
incfock               0
scf_convergence       8
thresh                14
jobtype               opt
scf_guess             core
scf_guess_mix         5
scf_algorithm         diis
max_scf_cycles        100
geom_opt_max_cycles   300
$end

