$molecule
0 2
C        1.6819772115    0.4842555239   -0.3492597867
C        1.1589924081   -0.8435413589   -0.4744597036
C       -0.2581162249   -0.9762137347   -0.3994887033
C       -1.2440230062    0.6376212360    0.9389887612
C       -0.4947819096    1.1335871218   -0.2784319554
N        0.8393204173    1.4699189932   -0.2182422282
H        2.7476928875    0.6819545187   -0.4435667168
H        1.8223227758   -1.6642807607   -0.6995976802
H       -0.6473071056   -1.8120127607   -0.9795014283
H       -1.8689381432    1.2308315474    1.5928963370
H       -1.0797785699    1.7798284578   -0.9512383141
C       -1.1147472970   -0.6765902214    0.8295417137
H       -1.6027831594   -1.4634024367    1.3998291467
$end

$rem
method                b3lyp
basis                 6-31g(d)
unrestricted          true
symmetry              off
sym_ignore            true
incdft                false
incfock               0
scf_convergence       8
thresh                14
jobtype               freq
scf_guess             read
scf_algorithm         diis
max_scf_cycles        100
$end

