$molecule
0 2
C        1.6316925360    0.4907998443   -0.2369431323
C        1.1138847553   -0.8106107325   -0.4879154461
C       -0.3008548317   -0.9733479592   -0.4183922610
C       -1.2162709803    0.6628471478    0.9106635746
C       -0.5234319129    1.0983001125   -0.3385070600
N        0.7876532278    1.4963513839   -0.1949450592
H        2.6961039544    0.6910933742   -0.1223369540
H        1.7602304603   -1.5865032714   -0.8919828941
H       -0.7010902000   -1.7748781512   -1.0494521610
H       -1.5914534985    1.2905551443    1.7142355152
H       -1.0866809895    1.4922578174   -1.1882919946
C       -1.1145913412   -0.6625258752    0.8042865668
H       -1.5153608953   -1.4323827094    1.4670507479
$end

$rem
method                b3lyp
basis                 6-31+g(d,p)
unrestricted          true
symmetry              off
sym_ignore            true
incdft                false
incfock               0
scf_convergence       8
thresh                14
jobtype               ts
scf_guess             read
scf_algorithm         diis
max_scf_cycles        100
geom_opt_max_cycles   500
geom_opt_dmax         100
geom_opt_tol_gradient 10
geom_opt_hessian      read
$end

