$molecule
0 2
C        0.5790544799   -0.0352893116    0.2311747782
C        0.8307935072   -1.2536009814   -0.6523237532
C        0.7682008494   -2.5052669198   -0.2609792757
C       -1.3102393635    1.2579465512    0.5061931094
C       -0.2877865073    1.9236155324   -0.3163840418
N        0.7783120848    1.2206772000   -0.5076226091
H        1.3236673354   -0.0396890026    1.0433333656
H        1.0868829714   -1.0153558992   -1.6907845300
H        0.9040669756   -3.4887008517   -0.6893610225
H       -2.2756881208    1.6714468289    0.7730542678
H       -0.3860945744    2.9185566255   -0.7462793586
C       -0.8034700230    0.0535144506    0.8332604179
H       -1.2620467596   -0.7325635364    1.4204040629
$end

$rem
method                b3lyp
basis                 6-31+g(d,p)
unrestricted          true
symmetry              off
sym_ignore            true
incdft                false
incfock               0
scf_convergence       8
thresh                14
jobtype               sp
scf_guess             core
scf_guess_mix         5
scf_algorithm         diis
max_scf_cycles        100
$end

