$molecule
0 2
C        0.5834227387   -0.0295118183    0.2246755724
C        0.8499611948   -1.2507882536   -0.6494587839
C        0.7067891058   -2.5022121179   -0.2790636509
C       -1.3117332323    1.2496864162    0.5152323790
C       -0.3048588052    1.9191375635   -0.3230569523
N        0.7635620970    1.2228600193   -0.5248651974
H        1.3365705530   -0.0167249451    1.0299500081
H        1.2016199314   -1.0141406205   -1.6597866528
H        0.8440872830   -3.4866305819   -0.7048781490
H       -2.2772839845    1.6570235294    0.7907566074
H       -0.4151748331    2.9115924119   -0.7557186361
C       -0.7922409369    0.0505034079    0.8419500111
H       -1.2390682415   -0.7355043393    1.4379488468
$end

$rem
method                b3lyp
basis                 6-31+g(d,p)
unrestricted          true
symmetry              off
sym_ignore            true
incdft                false
incfock               0
scf_convergence       8
thresh                14
jobtype               opt
scf_guess             read
scf_algorithm         diis
max_scf_cycles        100
geom_opt_max_cycles   300
$end

