$molecule
0 2
C        0.5749777878   -0.0414768629    0.2378080345
C        0.8103535558   -1.2566459554   -0.6543169374
C        0.8281558492   -2.5055520379   -0.2499875705
C       -1.3075166336    1.2664397176    0.4982322210
C       -0.2705402908    1.9271202262   -0.3102888367
N        0.7929140591    1.2170975657   -0.4914342527
H        1.3119563732   -0.0632264036    1.0554586725
H        0.9692078784   -1.0200205327   -1.7126944267
H        0.9619571113   -3.4882301635   -0.6805227278
H       -2.2721311419    1.6866359849    0.7573206270
H       -0.3570464971    2.9239967143   -0.7381336080
C       -0.8134545224    0.0570456802    0.8261930648
H       -1.2831806806   -0.7278932282    1.4060511696
$end

$rem
method                b3lyp
basis                 6-31+g(d,p)
unrestricted          true
symmetry              off
sym_ignore            true
incdft                false
incfock               0
scf_convergence       8
thresh                14
jobtype               opt
scf_guess             read
scf_algorithm         diis
max_scf_cycles        100
geom_opt_max_cycles   300
$end

