$molecule
0 2
C        0.5858571679   -0.0330371068    0.2406904452
C        0.8271227805   -1.2496449176   -0.6504958050
C        0.7668773048   -2.4996108904   -0.2579918086
C       -1.3099222646    1.2517377402    0.5002193020
C       -0.2844451446    1.9163148678   -0.3185843456
N        0.7874998005    1.2225018772   -0.4991511003
H        1.3309318193   -0.0428711435    1.0521560137
H        1.0675515572   -1.0063435902   -1.6913914663
H        0.8974958539   -3.4791052438   -0.6991635327
H       -2.2788433693    1.6637830810    0.7586592878
H       -0.3876965091    2.9094170082   -0.7543724116
C       -0.7995991612    0.0543137503    0.8374678093
H       -1.2571769802   -0.7321647468    1.4256430232
$end

$rem
method                b3lyp
basis                 6-31+g(d,p)
unrestricted          true
symmetry              off
sym_ignore            true
incdft                false
incfock               0
scf_convergence       8
thresh                14
jobtype               freq
scf_guess             read
scf_algorithm         diis
max_scf_cycles        100
$end

