$molecule
0 2
C        0.4849791357   -0.2290290790    0.2385351779
C        0.4185789294   -1.3086068369   -0.8474943871
C        0.8510005440   -2.5411554769   -0.7256288727
C       -1.1172286172    1.4144361376    0.4684871929
C        0.1027647159    1.9071332074   -0.1911839246
N        1.0282020989    1.0160615384   -0.3286792258
H        1.1495728936   -0.5639786715    1.0454920049
H       -0.0522784407   -0.9732037375   -1.7727164474
H        1.3434077873   -3.1700082741    0.0038451299
H       -2.0082334812    1.9970575367    0.6707718026
H        0.2495594838    2.9250607871   -0.5468525140
C       -0.8922392396    0.1165520926    0.7527525598
H       -1.5580858101   -0.5903192243    1.2326715034
$end

$rem
method                b3lyp
basis                 6-31+g(d,p)
unrestricted          true
symmetry              off
sym_ignore            true
incdft                false
incfock               0
scf_convergence       8
thresh                14
jobtype               sp
scf_guess             core
scf_guess_mix         5
scf_algorithm         diis
max_scf_cycles        100
$end

