$molecule
0 2
C       -0.7632602522    0.0057149871    1.0115006751
C        1.6386894134   -2.2196588729   -1.3983316748
C        2.2602669255   -3.1974389561   -1.7467900176
C       -1.1186383223    2.2034581676    0.7106830341
C       -0.3283769562    1.5914699816   -0.3528765968
N       -0.1292784470    0.2734843963   -0.1486562219
H       -0.7663575929   -0.9968966541    1.4261377491
H        1.0845470216   -1.3526523968   -1.0822970356
H        2.8081485946   -4.0599882006   -2.0517481939
H       -1.4072765464    3.2443061098    0.7715159450
H        0.0779213145    2.0879611409   -1.2272963979
C       -1.3967270301    1.1900028482    1.5825052240
H       -1.9596581224    1.2302374491    2.5056535112
$end

$rem
method                b3lyp
basis                 6-31+g(d,p)
unrestricted          true
symmetry              off
sym_ignore            true
incdft                false
incfock               0
scf_convergence       8
thresh                14
jobtype               sp
scf_guess             read
scf_algorithm         diis
max_scf_cycles        100
scf_final_print       1
$end

