$molecule
0 2
C        0.6617765198    0.2657108096    0.9036455091
C        0.3491250067   -1.7756695549   -1.4367753378
C        0.7833422240   -2.7744740903   -0.9153355575
C       -1.1900978430    1.4145495375    0.3511057777
C        0.0385303504    1.9948418372   -0.1791351290
N        1.1342057693    1.2865646755    0.1653002869
H        1.3267638070   -0.4856840960    1.3095929750
H       -0.0240858357   -0.8789420140   -1.8803791982
H        1.1739462592   -3.6495682804   -0.4456885720
H       -2.1930251688    1.7993894852    0.2123746866
H        0.1236566435    2.8908186010   -0.7857285241
C       -0.7923488514    0.3066839590    1.0450748672
H       -1.4034874467   -0.4104084850    1.5779182070
$end

$rem
method                b3lyp
basis                 6-31+g(d,p)
unrestricted          true
symmetry              off
sym_ignore            true
incdft                false
incfock               0
scf_convergence       8
thresh                14
jobtype               opt
scf_guess             read
scf_algorithm         diis
max_scf_cycles        100
geom_opt_max_cycles   300
$end

