$molecule
0 2
C       -0.6742597494    0.0691801446    1.2906990278
C        1.5692402951   -2.2321629297   -1.4714070418
C        2.1826515824   -3.1096141351   -2.0285604696
C       -1.1252514648    2.1625924157    0.6240483918
C       -0.3434398663    1.3991189076   -0.3412387995
N       -0.0852379199    0.1461170800    0.0814359468
H       -0.6276238764   -0.8440430331    1.8747778661
H        1.0260766928   -1.4491398538   -0.9691160022
H        2.7227685522   -3.8852460490   -2.5232200045
H       -1.4513558709    3.1880594155    0.5089220640
H        0.0177586869    1.7471190384   -1.3037738335
C       -1.3371030355    1.3118335110    1.6681667171
H       -1.8742240261    1.4961854879    2.5892661375
$end

$rem
method                b3lyp
basis                 6-31g(d)
unrestricted          true
symmetry              off
sym_ignore            true
incdft                false
incfock               0
scf_convergence       8
thresh                14
jobtype               opt
scf_guess             core
scf_guess_mix         5
scf_algorithm         diis
max_scf_cycles        100
geom_opt_max_cycles   300
$end

