$molecule
0 2
C        0.6060057802   -0.0186178401    0.5950744668
C        0.3906363253   -1.3795835931   -0.9757393698
C        0.7742422508   -2.5450140813   -0.7822098259
C       -1.1602887521    1.3628911027    0.3450105067
C        0.0640880387    1.8887730565   -0.2491011628
N        1.1053273853    1.0956203168   -0.0826729990
H        1.2908033431   -0.6136806163    1.1859302175
H       -0.0320508376   -0.6800509175   -1.6740583659
H        1.1772517800   -3.4276000322   -0.3335559408
H       -2.1329948193    1.8382049728    0.3324637282
H        0.1609939778    2.8319264200   -0.7792430142
C       -0.8137295206    0.1667861185    0.9043831784
H       -1.4419835203   -0.5358425256    1.4356885702
$end

$rem
method                b3lyp
basis                 6-31+g(d,p)
unrestricted          true
symmetry              off
sym_ignore            true
incdft                false
incfock               0
scf_convergence       8
thresh                14
jobtype               sp
scf_guess             read
scf_algorithm         diis
max_scf_cycles        100
$end

