$molecule
0 2
C        0.1754950381   -0.1395226424    0.5932997691
C        0.6250692464   -1.7171176984   -1.0565206041
C        1.2895196168   -2.7599319278   -1.1328759000
C       -1.1774725144    1.6782107003    0.5259900210
C        0.0355371764    1.8256200037   -0.2928525200
N        0.8209143001    0.7941523442   -0.2338075946
H        0.7722272405   -0.6455603316    1.3507989620
H        0.0102696871   -1.1032496170   -1.6977822589
H        1.9682781180   -3.5191944885   -0.7994692701
H       -1.9304944349    2.4409214717    0.6883721776
H        0.2684644047    2.6881384868   -0.9122967412
C       -1.1024373152    0.4320294654    1.0748529487
H       -1.7670691321    0.0093166148    1.8142609998
$end

$rem
method                b3lyp
basis                 6-31g(d)
unrestricted          true
symmetry              off
sym_ignore            true
incdft                false
incfock               0
scf_convergence       8
thresh                14
jobtype               freq
scf_guess             read
scf_algorithm         diis
max_scf_cycles        100
$end

