$molecule
0 2
C        1.9177378580    0.8965913081   -0.3859780095
C       -1.3400193400   -2.5606155081    0.6540690563
C       -1.4392507762   -1.3015991260    1.0181271924
C       -1.4622329765   -0.1466720160    0.0815561733
C       -0.3793473497    0.5442700408   -0.3487866101
N        0.8890879885    0.2162172196    0.0711519273
H        2.8861104368    0.5680725678    0.0127857056
H       -1.3151674258   -3.5302267284    1.1334037572
H       -1.5507675317   -1.0591519888    2.0851404865
H       -2.4406036122    0.1807097904   -0.2685510797
H       -0.5055885116    1.3839095492   -1.0367804810
C        1.8865474151    1.9703258187   -1.3114966776
H        2.8257348864    2.4452861914   -1.6091191684
$end

$rem
method                b3lyp
basis                 6-31+g(d,p)
unrestricted          true
symmetry              off
sym_ignore            true
incdft                false
incfock               0
scf_convergence       8
thresh                14
jobtype               ts
scf_guess             read
scf_algorithm         diis
max_scf_cycles        100
geom_opt_max_cycles   500
geom_opt_dmax         100
geom_opt_tol_gradient 10
geom_opt_hessian      read
$end

