$molecule
0 2
C        1.6403757167    0.4144566536   -0.0558944265
C       -0.0235008501   -1.2469407775    0.1284806793
C       -1.3421710328   -1.0952186671    0.3438123205
C       -1.7872335261    0.2596298550    0.2631867039
C       -0.6942204125    1.0734142392    0.2679288408
N        0.5535602208    0.6195709439    0.6856862924
H        2.5704664776    0.2544036840    0.5162234270
H        0.6381583548   -2.0228383989    0.4695985770
H       -1.9698004755   -1.9260389159    0.6701427067
H       -2.8300766115    0.5933648555    0.2794053011
H       -0.6977039358    2.1479641100    0.1048747768
C        1.5642211334    0.1712461031   -1.4102823226
H        2.3501660021    0.3641034341   -2.1676406042
$end

$rem
method                b3lyp
basis                 6-31g(d)
unrestricted          true
symmetry              off
sym_ignore            true
incdft                false
incfock               0
scf_convergence       8
thresh                14
jobtype               sp
scf_guess             core
scf_guess_mix         5
scf_algorithm         diis_gdm
max_scf_cycles        300
$end

