$molecule
0 2
C        1.6912549636    0.3586346560   -0.5137566479
C        1.2708136005   -0.9576066303   -0.4562766604
C       -0.0252422287   -1.4843084131   -0.0989833721
C       -1.1167115937   -0.8365109363    0.2963764033
C        0.2439539694    2.4114136485   -0.3063920572
N        0.9583530533    1.4279919887   -0.2213667538
H        2.7236042081    0.5767735663   -0.7765070323
H        2.0261696513   -1.6930983011   -0.7119558158
H       -0.1138252033   -2.5702206241   -0.1549849856
H       -2.9768428065    0.0670633472   -0.0357502653
H       -0.0210001259    3.0308101979    0.5640322183
C       -2.2245550728   -0.2603297666    0.6816983404
H       -2.4359724154   -0.0706127330    1.7338666285
$end

$rem
method                b3lyp
basis                 6-31+g(d,p)
unrestricted          true
symmetry              off
sym_ignore            true
incdft                false
incfock               0
scf_convergence       8
thresh                14
jobtype               sp
scf_guess             core
scf_guess_mix         5
scf_algorithm         diis
max_scf_cycles        100
$end

