$molecule
0 2
C        1.6127238806    0.3939076637   -0.3987524957
C        1.0718510134   -0.9376535722   -0.4651087152
C       -0.1756398357   -1.4429260255   -0.2214608286
C       -1.4289383074   -0.8026711817    0.1561468961
C        0.2468096406    2.3243753736    0.4080595534
N        1.0106609416    1.4276779966    0.1014588863
H        2.6249851189    0.5584253981   -0.7559015843
H        1.8216568719   -1.6674849814   -0.7631566279
H       -0.2545233329   -2.5245327108   -0.3228944963
H       -2.1847926371   -1.5135621950    0.5225338161
H        0.2343852563    2.7457921004    1.4169992729
C       -1.8108674774    0.4725687463    0.0732708318
H       -2.7481230360    0.9774945733    0.2776819222
$end

$rem
method                b3lyp
basis                 6-31+g(d,p)
unrestricted          true
symmetry              off
sym_ignore            true
incdft                false
incfock               0
scf_convergence       8
thresh                14
jobtype               opt
scf_guess             read
scf_algorithm         diis
max_scf_cycles        100
geom_opt_max_cycles   300
$end

