$molecule
0 2
C        1.7364333303    0.3605354938   -0.4320217329
C        1.2523061019   -0.9309627692   -0.4949115977
C       -0.0348563027   -1.4283226773   -0.0550318263
C       -1.1789798754   -0.7794511196    0.1171095592
C        0.4164427495    2.4130630196    0.2112640032
N        1.0847364425    1.4040354753    0.0750177282
H        2.7651800276    0.5627699124   -0.7206886616
H        1.9585531824   -1.6770365203   -0.8459132591
H       -0.0599927987   -2.4935065776    0.1816885858
H       -3.0942821005   -0.3167112452   -0.5748300718
H        0.2349650511    2.8728331669    1.1955687829
C       -2.3700076378   -0.2510992682    0.2368154316
H       -2.6903100719    0.2752642748    1.1348095131
$end

$rem
method                b3lyp
basis                 6-31+g(d,p)
unrestricted          true
symmetry              off
sym_ignore            true
incdft                false
incfock               0
scf_convergence       8
thresh                14
jobtype               opt
scf_guess             read
scf_algorithm         diis
max_scf_cycles        100
geom_opt_max_cycles   300
$end

