$molecule
0 2
C        1.9264257874    0.3340537195   -0.3726496423
C        1.3269448631   -0.9246867033   -0.5166790570
C       -0.0208685491   -1.0632001041   -0.2330907724
C       -0.7678824353    0.0698163235    0.1958391018
C       -0.0354307559    1.2928425107    0.2997580462
N        1.2557637047    1.4288456256    0.0303350617
H        2.9840219015    0.4725931536   -0.5873907368
H        1.9188910166   -1.7743289560   -0.8452131148
H       -0.5166556011   -2.0258176856   -0.3327016792
H       -2.6950549531   -0.9138855978    0.4223177669
H       -0.5597696956    2.1927052707    0.6226377799
C       -2.1380275933    0.0131479433    0.4982980790
H       -2.6783576899    0.8979144999    0.8185391671
$end

$rem
method                b3lyp
basis                 6-31g(d)
unrestricted          true
symmetry              off
sym_ignore            true
incdft                false
incfock               0
scf_convergence       8
thresh                14
jobtype               opt
scf_guess             core
scf_guess_mix         5
scf_algorithm         diis
max_scf_cycles        100
geom_opt_max_cycles   300
$end

