$molecule
0 2
C        1.7454678101    0.3339671072   -0.4465498483
C        1.2335012708   -0.9487431784   -0.5248967036
C       -0.0816795760   -1.3194089684   -0.1476469512
C       -1.0096535482   -0.4404239324    0.3787818136
C       -0.1452421553    1.5325112782    0.3305595724
N        1.0726859564    1.4059306321    0.0764228021
H        2.8027740501    0.5074342969   -0.6189196544
H        1.9004216861   -1.7373122706   -0.8541621207
H       -0.4220019384   -2.3401871573   -0.2869882398
H       -2.2477966717   -0.8425479390    0.2784126840
H       -0.5920710148    2.2759722613    0.9846992571
C       -1.8616297500    0.5482381704    0.0083514122
H       -2.3745880207    1.0359808735    0.8508124146
$end

$rem
method                b3lyp
basis                 6-31g(d)
unrestricted          true
symmetry              off
sym_ignore            true
incdft                false
incfock               0
scf_convergence       8
thresh                14
jobtype               freq
scf_guess             read
scf_algorithm         diis
max_scf_cycles        100
$end

