$molecule
0 2
C        1.6782582310    0.3416816662   -0.3574100181
C        1.1604284498   -0.9503842729   -0.4658007828
C       -0.1624430739   -1.4159576694   -0.2353289727
C       -1.2487844023   -0.6493100443    0.0746349265
C        0.3357064529    2.3912924486    0.2526281374
N        1.0263770291    1.3973522560    0.0977988635
H        2.7219010049    0.5176768931   -0.6036057351
H        1.8866220024   -1.7102272500   -0.7365909169
H       -0.3141238750   -2.4906439912   -0.2549668151
H       -2.3639446395   -1.1408095320    0.1433259432
H        0.2238771263    2.8570784310    1.2449645027
C       -2.2235095231    0.2571722717   -0.0292015829
H       -2.7001766841    0.6064899667    0.8984288881
$end

$rem
method                b3lyp
basis                 6-31+g(d,p)
unrestricted          true
symmetry              off
sym_ignore            true
incdft                false
incfock               0
scf_convergence       8
thresh                14
jobtype               freq
scf_guess             read
scf_algorithm         diis
max_scf_cycles        100
$end

