$molecule
0 2
C        1.5791252056    0.2926202887   -0.3212753300
C        0.6383214384   -0.8741601761   -0.0514834807
C       -0.6901991429   -0.3721876257   -0.7166529371
C       -1.0453332800    0.3114421959    0.6398804315
C       -0.4442860169    1.0906140833   -0.5665324209
N        0.9712589404    1.3958592422   -0.5616369474
H        2.6590888752    0.2502177049   -0.1968520835
H        1.0170265662   -1.8840325215   -0.2076048272
H       -1.3374552282   -0.8896715450   -1.4177306634
H       -2.0117308370    0.6039638343    1.0355374753
H       -1.1044523105    1.8203631371   -1.0220751935
C       -0.0253995665   -0.5228538164    1.2894775493
H       -0.2059646436   -1.2221748016    2.0969484280
$end

$rem
method                b3lyp
basis                 6-31+g(d,p)
unrestricted          true
symmetry              off
sym_ignore            true
incdft                false
incfock               0
scf_convergence       8
thresh                14
jobtype               sp
scf_guess             core
scf_guess_mix         5
scf_algorithm         diis
max_scf_cycles        100
$end

