$molecule
0 2
C        1.5897937615    0.3683722827   -0.3283858501
C        0.7814750451   -0.8585019123   -0.0679401832
C       -0.5686651735   -0.5784945367   -0.6452099477
C       -0.8298553969    0.7491988158    0.9851584379
C       -0.5261538031    0.9907554398   -0.4998359593
N        0.8925294941    1.4046700634   -0.6172885341
H        2.6751121435    0.4117311705   -0.2550868103
H        1.2082632314   -1.8560379390   -0.0948695380
H       -1.1440276044   -1.1971761697   -1.3265528657
H       -1.7252779827    1.0964010865    1.4882723361
H       -1.1952276977    1.6241695573   -1.0797497621
C       -0.4433117587   -0.6710972149    0.8884329758
H       -0.7146542587   -1.4839906434    1.5530557009
$end

$rem
method                b3lyp
basis                 6-31+g(d,p)
unrestricted          true
symmetry              off
sym_ignore            true
incdft                false
incfock               0
scf_convergence       8
thresh                14
jobtype               sp
scf_guess             core
scf_guess_mix         5
scf_algorithm         diis
max_scf_cycles        100
$end

