$molecule
0 2
C        1.5486951731    0.2442336635   -0.2494075832
C        0.5832877847   -0.9254885455   -0.0949144588
C       -0.7096484807   -0.3596107883   -0.7855341012
C       -1.1193955337    0.1992909432    0.5904615686
C       -0.4422521773    1.0835525612   -0.5517996318
N        0.9671171309    1.3696570034   -0.4538244963
H        2.6208252181    0.1780447767   -0.0708608150
H        0.9605783932   -1.9279423739   -0.3083543462
H       -1.3195292186   -0.8226233496   -1.5554190234
H       -2.0921367155    0.5063234239    0.9619766907
H       -1.0832887086    1.8560368313   -0.9641885398
C       -0.1340248975   -0.6634536071    1.2281084250
H        0.2197720324   -0.7380205390    2.2537563110
****
C        1.5862167321    0.3752484457   -0.3110432178
C        0.7817497375   -0.8579963142   -0.0686461741
C       -0.5626767796   -0.5793514462   -0.6572232044
C       -0.8331545171    0.7408410072    0.9835204086
C       -0.5267377577    0.9886603279   -0.4988024863
N        0.8919135618    1.4118661882   -0.5987913352
H        2.6709340366    0.4221547241   -0.2209525076
H        1.2124765558   -1.8542205295   -0.0970044697
H       -1.1233934872   -1.1933047692   -1.3562425719
H       -1.7077709260    1.1078635516    1.5084557950
H       -1.1949331404    1.6218615707   -1.0820825965
C       -0.4590759748   -0.6817606617    0.8721791246
H       -0.7355480409   -1.5018620945    1.5266332353
$end

$rem
method                b3lyp
basis                 6-31g(d)
unrestricted          true
symmetry              off
sym_ignore            true
incdft                false
incfock               0
scf_convergence       8
thresh                14
jobtype               fsm
scf_guess             core
scf_guess_mix         5
scf_algorithm         diis
max_scf_cycles        100
fsm_nnode             21
fsm_ngrad             6
fsm_mode              2
fsm_opt_mode          2
$end

