$molecule
0 2
C        1.5870793774    0.3753843937   -0.3119053564
C        0.7820645318   -0.8578262721   -0.0688868138
C       -0.5627703348   -0.5794053137   -0.6571102005
C       -0.8325735059    0.7413699577    0.9848007507
C       -0.5271771098    0.9883395933   -0.4982636290
N        0.8917918590    1.4118715522   -0.5988534640
H        2.6718673927    0.4219606112   -0.2217395189
H        1.2115170854   -1.8547515029   -0.0957786751
H       -1.1230205578   -1.1920600677   -1.3575009313
H       -1.7091975256    1.1071311352    1.5074004879
H       -1.1954027774    1.6214851215   -1.0817205603
C       -0.4584914177   -0.6818767224    0.8724562960
H       -0.7356870172   -1.5016224859    1.5271016146
$end

$rem
method                b3lyp
basis                 6-31g(d)
unrestricted          true
symmetry              off
sym_ignore            true
incdft                false
incfock               0
scf_convergence       8
thresh                14
jobtype               opt
scf_guess             core
scf_guess_mix         5
scf_algorithm         diis
max_scf_cycles        100
geom_opt_max_cycles   300
$end

