$molecule
0 2
C        1.6322517459    0.3543648530   -0.3465257814
C        0.7808889647   -0.8318538957   -0.0283560322
C       -0.5700725752   -0.4158196605   -0.5324487334
C       -0.9438878130    0.6336396690    0.8425088615
C       -0.4366501473    1.0799369772   -0.5346192062
N        0.9686914328    1.4212284455   -0.6351252429
H        2.7196774137    0.3464596221   -0.3307138120
H        1.1529188411   -1.8428947204   -0.1586494908
H       -1.3478985809   -1.0351368499   -0.9585139253
H       -2.0112012016    0.6967558815    1.0376505037
H       -1.1170421309    1.7012313199   -1.1065941909
C       -0.1680845904   -0.6218672378    1.1774890920
H       -0.6753251617   -1.5025885983    1.5684506138
$end

$rem
method                b3lyp
basis                 6-31+g(d,p)
unrestricted          true
symmetry              off
sym_ignore            true
incdft                false
incfock               0
scf_convergence       6
thresh                14
jobtype               sp
scf_guess             read
scf_algorithm         diis
max_scf_cycles        100
stability_analysis    true
max_cis_cycles        100
cis_n_roots           4
$end

