$molecule
0 2
C        1.5817774021    0.3120151961   -0.3122421681
C        0.6705574181   -0.8850034414   -0.0964459145
C       -0.6147839286   -0.4163785966   -0.7283474707
C       -0.9774092738    0.5682604273    0.8128780744
C       -0.4744878904    1.0504386071   -0.5483289568
N        0.9553169006    1.4060716891   -0.5409374500
H        2.6589303224    0.2868294437   -0.1546823471
H        1.0419166784   -1.8939299535   -0.2578800626
H       -1.3057425376   -0.9745698267   -1.3508585737
H       -2.0288149060    0.6845983511    1.0737343376
H       -1.1174727517    1.7522927453   -1.0719248652
C       -0.1715907581   -0.6477523447    1.1360505493
H       -0.2339304782   -1.2594164913    2.0335375031
$end

$rem
method                b3lyp
basis                 6-31g(d)
unrestricted          true
symmetry              off
sym_ignore            true
incdft                false
incfock               0
scf_convergence       8
thresh                14
jobtype               freq
scf_guess             read
scf_algorithm         diis
max_scf_cycles        100
$end

