$molecule
0 2
C        1.5190299831    0.4270218315   -0.2889712789
C        0.7871657630   -0.8420399531   -0.0389963741
C       -0.5501855471   -0.6812296370   -0.6711893465
C       -0.9947374516    0.7016981034    0.8736733780
C       -0.6262907284    0.8940498213   -0.5924460919
N        0.7673551329    1.4075040609   -0.6435108482
H        2.5910847495    0.5531044192   -0.1490305526
H        1.2774088207   -1.8078752857    0.0279423272
H       -1.0405956620   -1.3607055215   -1.3606818287
H       -1.1258619534    1.4257642695    1.6725007342
H       -1.2983620680    1.4545586885   -1.2428578089
C       -0.5440968602   -0.6853043127    0.8579920153
H       -0.7619141785   -1.4865464843    1.5555756750
$end

$rem
method                b3lyp
basis                 6-31+g(d,p)
unrestricted          true
symmetry              off
sym_ignore            true
incdft                false
incfock               0
scf_convergence       6
thresh                14
jobtype               sp
scf_guess             read
scf_algorithm         diis
max_scf_cycles        100
stability_analysis    true
max_cis_cycles        100
cis_n_roots           4
$end

