$molecule
0 2
C        1.5220644764    0.3458674627   -0.2659712780
C        0.6261616804   -0.8923488114   -0.0628850116
C       -0.3976347031   -0.5227046610   -1.1413023795
C       -1.0009161738    0.5126632266    0.8106095797
C       -0.5872680970    0.8966071085   -0.6198986006
N        0.8501497357    1.3862781438   -0.5796611249
H        2.6024981005    0.3634926294   -0.1406525372
H        1.1087402191   -1.8690053058   -0.0747627544
H       -1.2181857219   -1.1794632011   -1.4229654464
H       -1.7239916303    1.0481435509    1.4148404578
H       -1.2349965784    1.5908292639   -1.1511280598
C       -0.2716181759   -0.5662072313    1.1492455630
H       -0.2750031321   -1.1141521746    2.0845315917
$end

$rem
method                b3lyp
basis                 6-31+g(d,p)
unrestricted          true
symmetry              off
sym_ignore            true
incdft                false
incfock               0
scf_convergence       6
thresh                14
jobtype               sp
scf_guess             read
scf_algorithm         diis
max_scf_cycles        100
stability_analysis    true
max_cis_cycles        100
cis_n_roots           4
$end

