$molecule
0 2
C        1.5349566673    0.4155116544   -0.2991145897
C        0.7937536540   -0.8452060303   -0.0385316718
C       -0.5437531197   -0.6754286578   -0.6645576319
C       -0.9927064327    0.7055328265    0.8708945478
C       -0.6107915569    0.9016521529   -0.5892109251
N        0.7882351990    1.4019443328   -0.6463960001
H        2.6103077777    0.5287516684   -0.1747318117
H        1.2749204431   -1.8160611980    0.0271690727
H       -1.0539897628   -1.3520431863   -1.3417537552
H       -1.2695066625    1.4033622704    1.6532263634
H       -1.2754252487    1.4678033339   -1.2422584037
C       -0.5287343189   -0.6747759312    0.8684769229
H       -0.7472825407   -1.4730196076    1.5690520480
$end

$rem
method                b3lyp
basis                 6-31+g(d,p)
unrestricted          true
symmetry              off
sym_ignore            true
incdft                false
incfock               0
scf_convergence       8
thresh                14
jobtype               opt
scf_guess             read
scf_algorithm         diis
max_scf_cycles        100
geom_opt_max_cycles   300
$end

