$molecule
0 2
C        1.5523330072    0.3737772416   -0.3186074806
C        0.7245203547   -0.8589642689   -0.0388355789
C       -0.4909236383   -0.5978229204   -0.8741633086
C       -0.9087389334    0.6749641817    0.8862959705
C       -0.5735878410    0.9211522076   -0.5868072956
N        0.8531451505    1.3885744343   -0.6577684955
H        2.6332477702    0.4278751644   -0.1967590579
H        1.1818481117   -1.8457950373   -0.0157083932
H       -1.1921336474   -1.2724344272   -1.3417660392
H       -1.6973822192    1.1291502945    1.4680765607
H       -1.2371155934    1.5585351725   -1.1679678655
C       -0.3304703623   -0.5844399236    1.0338703198
H       -0.5347580622   -1.3265485000    1.8024048276
$end

$rem
method                b3lyp
basis                 6-31g(d)
unrestricted          true
symmetry              off
sym_ignore            true
incdft                false
incfock               0
scf_convergence       8
thresh                14
jobtype               sp
scf_guess             core
scf_guess_mix         5
scf_algorithm         diis
max_scf_cycles        100
$end

