$molecule
0 2
C        1.5424034222    0.3817451887   -0.3044051204
C        0.7259481315   -0.8604389948   -0.0402630990
C       -0.4973973076   -0.6128706235   -0.8638349709
C       -0.9545188168    0.6557249853    0.8620601199
C       -0.5908653084    0.9074296190   -0.5964313227
N        0.8304513547    1.3895329384   -0.6456162564
H        2.6199608671    0.4544492194   -0.1657370091
H        1.1948266451   -1.8417576728   -0.0170266334
H       -1.1559844090   -1.2944311900   -1.3817341737
H       -1.5580866656    1.2298948886    1.5510670001
H       -1.2552816987    1.5292354829   -1.1956005611
C       -0.3612735809   -0.6048563132    1.0093260266
H       -0.5601985365   -1.3456339088    1.7804601636
$end

$rem
method                b3lyp
basis                 6-31g(d)
unrestricted          true
symmetry              off
sym_ignore            true
incdft                false
incfock               0
scf_convergence       8
thresh                14
jobtype               sp
scf_guess             read
scf_algorithm         diis
max_scf_cycles        100
$end

