$molecule
0 2
C        1.7735676198    0.1350505132    0.0878038119
C        1.0421577649   -0.8386349613   -0.6136452867
C       -0.3618803047   -0.3521262617   -0.7605280900
C       -1.3468850307   -0.7167652232    0.3648938411
C       -0.2674630749    1.0472879030   -0.0317410982
N        1.0985956682    1.2244069860    0.4464801005
H        2.8210631307    0.0390106201    0.3661366373
H        1.4276701454   -1.7932011312   -0.9537925776
H       -0.7610042541   -0.3949112979   -1.7819458922
H       -1.8996588884   -1.6310841757    0.5624265836
H       -0.6132879394    1.9347590990   -0.5743587520
C       -1.2483240624    0.4648441727    0.9884336031
H       -1.6645507746    0.8813637573    1.8998371188
$end

$rem
method                b3lyp
basis                 6-31+g(d,p)
unrestricted          true
symmetry              off
sym_ignore            true
incdft                false
incfock               0
scf_convergence       8
thresh                14
jobtype               sp
scf_guess             read
scf_algorithm         diis
max_scf_cycles        100
scf_final_print       1
$end

