$molecule
0 2
C        2.0062347227    0.0728435582   -0.2298844129
C        1.0429644008   -0.8580739509   -0.3651711056
C       -0.2666404067   -0.1201373318   -0.5202776795
C       -1.3637578193   -0.5315002553    0.4461408463
C        0.2209715968    1.3063105951   -0.4030182228
N        1.4982530840    1.4069750243   -0.2592850674
H        3.0722577656   -0.0749282087   -0.1081338999
H        1.1574841112   -1.9342995297   -0.3750851034
H       -0.6435339301   -0.2688891834   -1.5486831928
H       -1.6942803487   -1.5740944543    0.3540714691
H       -0.4238931940    2.1791335456   -0.4555685640
C       -1.9214570523    0.2407012347    1.3514957612
H       -2.6846029299    0.1559589563    2.1133991717
$end

$rem
method                b3lyp
basis                 6-31+g(d,p)
unrestricted          true
symmetry              off
sym_ignore            true
incdft                false
incfock               0
scf_convergence       8
thresh                14
jobtype               sp
scf_guess             read
scf_algorithm         diis
max_scf_cycles        100
scf_final_print       1
$end

