$molecule
0 2
C        1.6431615052    0.2517491696   -0.3059414860
C        1.0642648192   -0.9748675504   -0.5728031175
C       -0.3066759090   -1.3734716899   -0.3792227773
C       -1.3200699932   -0.6068531553    0.1139958302
C       -0.1285830175    1.5922743677    0.5529902592
N        1.1635891900    1.4161125357    0.1896452481
H        2.7089841228    0.3145038152   -0.5365461817
H        1.7314644331   -1.7312675428   -0.9791197587
H       -0.5470703140   -2.3970228370   -0.6597627719
H       -2.3016484929   -1.0696280903    0.1942532368
H       -0.3133240485    2.6018058732    0.9268356399
C       -1.2359678611    0.7654835267    0.5452559651
H       -2.1581244339    1.2111815774    0.9104199134
****
C        1.9553150283    0.1927443201   -0.1348745785
C        1.0116674714   -0.7638033898   -0.1513483084
C       -0.2832211010   -0.1070998783   -0.5489908083
C       -1.4591493841   -0.2712113001    0.3975310201
C        0.1899300164    1.3293540254   -0.6899543791
N        1.4476920207    1.4870597279   -0.4677070660
H        3.0102382545    0.0955894968    0.0943232665
H        1.1265014033   -1.8175129082    0.0670329238
H       -0.5970443572   -0.4547184246   -1.5503060745
H       -2.3895262974    0.2110902050    0.0696705053
H       -0.4557766311    2.1617497334   -0.9624104105
C       -1.4301983589   -0.9176402606    1.5399988378
H       -2.1264280650   -1.1456013469    2.3370350717
$end

$rem
method                b3lyp
basis                 6-31g(d)
unrestricted          true
symmetry              off
sym_ignore            true
incdft                false
incfock               0
scf_convergence       8
thresh                14
jobtype               fsm
scf_guess             core
scf_guess_mix         5
scf_algorithm         diis
max_scf_cycles        100
fsm_nnode             21
fsm_ngrad             6
fsm_mode              2
fsm_opt_mode          2
$end

