$molecule
0 2
C        1.9732243390    0.0922085647   -0.2126333279
C        1.0313796701   -0.8530005666   -0.3828388983
C       -0.2882996940   -0.1366183240   -0.5685865905
C       -1.3601244634   -0.5386821067    0.4289376720
C        0.1770514436    1.2980211546   -0.4598737882
N        1.4454572383    1.4208633521   -0.2691229296
H        3.0336109286   -0.0361298935   -0.0400762209
H        1.1615693849   -1.9259736793   -0.3809719807
H       -0.6728382285   -0.3137595416   -1.5892902164
H       -1.7548315058   -1.5559383413    0.3112867649
H       -0.4799802382    2.1593859419   -0.5413258232
C       -1.8065050820    0.2183395070    1.4087222768
H       -2.5110980832    0.1460373423    2.2248836393
$end

$rem
method                b3lyp
basis                 6-31+g(d,p)
unrestricted          true
symmetry              off
sym_ignore            true
incdft                false
incfock               0
scf_convergence       8
thresh                14
jobtype               opt
scf_guess             read
scf_algorithm         diis
max_scf_cycles        100
geom_opt_max_cycles   300
$end

