$molecule
0 2
C        1.8690954104    0.1786068315   -0.0579114029
C        1.1101211323   -0.8839581598   -0.4169549550
C       -0.3006225739   -0.4768976705   -0.7001225457
C       -1.4336271719   -0.5912996406    0.2897930971
C       -0.0562397740    1.1823942423   -0.2425968851
N        1.1888335896    1.3874852843    0.0540422510
H        2.9406798539    0.1804647046    0.1177107617
H        1.5219187670   -1.8667248950   -0.6333966838
H       -0.5943251320   -0.8205311378   -1.7073141071
H       -2.3827320807   -1.0340214231   -0.0112764610
H       -0.8015606891    1.9792901976   -0.3039268526
C       -1.2796626992    0.2119906840    1.3342678951
H       -1.8332629253    0.5279543795    2.2067964667
$end

$rem
method                b3lyp
basis                 6-31g(d)
unrestricted          true
symmetry              off
sym_ignore            true
incdft                false
incfock               0
scf_convergence       8
thresh                14
jobtype               freq
scf_guess             read
scf_algorithm         diis
max_scf_cycles        100
$end

