$molecule
0 2
C        1.8387484605    0.1061605412   -0.0238752880
C        1.0290867482   -0.8709312531   -0.5129707680
C       -0.3295072895   -0.2621781405   -0.7313797560
C       -1.3388556814   -0.6512145835    0.3344155702
C       -0.0468324088    1.1740861526   -0.2605128039
N        1.2112522180    1.3498230991    0.1134465148
H        2.8807938063    0.0121545704    0.2607178898
H        1.2840674759   -1.9106136041   -0.6750337088
H       -0.6952687597   -0.3504767565   -1.7646578091
H       -1.8339269616   -1.6230806353    0.3839034728
H       -0.6834110015    2.0252928016   -0.4819054057
C       -1.4279535968    0.3577801211    1.1836011498
H       -1.9395773024    0.6179510840    2.1033615206
$end

$rem
method                b3lyp
basis                 6-31+g(d,p)
unrestricted          true
symmetry              off
sym_ignore            true
incdft                false
incfock               0
scf_convergence       8
thresh                14
jobtype               freq
scf_guess             read
scf_algorithm         diis
max_scf_cycles        100
$end

