$molecule
0 2
C        1.8347822767    0.1051128593   -0.0229204164
C        1.0274500349   -0.8691635764   -0.5138320822
C       -0.3306554893   -0.2595557234   -0.7337914158
C       -1.3361163282   -0.6472673112    0.3361325478
C       -0.0420140191    1.1759097702   -0.2663812868
N        1.2124671838    1.3526678722    0.1107846633
H        2.8765237655    0.0094487672    0.2660783825
H        1.2786030818   -1.9108774745   -0.6710676043
H       -0.6993109980   -0.3501037548   -1.7661665449
H       -1.8247419469   -1.6231257155    0.3859170044
H       -0.6797063209    2.0272256051   -0.4874690546
C       -1.4264236995    0.3593969153    1.1846833510
H       -1.9422418337    0.6050851634    2.1071430344
$end

$rem
method                b3lyp
basis                 6-31g(d)
unrestricted          true
symmetry              off
sym_ignore            true
incdft                false
incfock               0
scf_convergence       6
thresh                14
jobtype               sp
scf_guess             read
scf_algorithm         diis
max_scf_cycles        100
stability_analysis    true
max_cis_cycles        100
cis_n_roots           4
$end

