$molecule
0 2
C        1.5698287221    0.3059185705    0.0276669261
C        1.0245862081   -0.9359079281    0.2906999428
C       -0.3677533043   -1.2065008643    0.1217995117
C       -1.3125382343    0.3907581754   -0.0317549133
C       -0.4262751271    1.4973868521    0.1648492049
N        0.8792844311    1.4866429071    0.0156791338
H        2.6509207844    0.4234625315    0.0281015801
H        1.6618474589   -1.7121581752    0.7085142621
H       -0.8570202939   -1.9854748250    0.7059561479
H       -2.2931518705    0.4191709408    0.4450236353
H       -0.8607927617    2.4291068620    0.5303548196
C       -1.0432542936   -0.6297242792   -1.0257349426
H       -0.6328366286   -0.4910176243   -2.0215111573
$end

$rem
method                b3lyp
basis                 6-31+g(d,p)
unrestricted          true
symmetry              off
sym_ignore            true
incdft                false
incfock               0
scf_convergence       8
thresh                14
jobtype               sp
scf_guess             core
scf_guess_mix         5
scf_algorithm         diis
max_scf_cycles        100
$end

