$molecule
0 2
C        1.5873289585    0.3105980964    0.1000687428
C        1.0214047612   -0.9092646147    0.2867349057
C       -0.4302157509   -1.0999914516    0.1749640934
C       -1.2458170961    0.2948107366    0.0320547059
C       -0.4044589831    1.4971746462    0.1666984895
N        0.8857736128    1.5204628525    0.0967223321
H        2.6671638611    0.4237109492    0.0869528804
H        1.6445635492   -1.7664400755    0.5274819332
H       -0.9030193638   -1.8931835179    0.7535143566
H       -2.2320609298    0.3377942611    0.4962566867
H       -0.9067044450    2.4388871050    0.3952845511
C       -1.0619798708   -0.6509441857   -1.0684442062
H       -0.6219783030   -0.5036148017   -2.0482894714
$end

$rem
method                b3lyp
basis                 6-31+g(d,p)
unrestricted          true
symmetry              off
sym_ignore            true
incdft                false
incfock               0
scf_convergence       8
thresh                14
jobtype               sp
scf_guess             core
scf_guess_mix         5
scf_algorithm         diis
max_scf_cycles        100
$end

