$molecule
0 2
C        1.6001467524    0.3489082672    0.4301514786
C        1.2115734283   -0.9562291318    0.1797543043
C       -0.0928546554   -1.4431959535   -0.1907335979
C       -1.3504376679    0.7288335228   -0.2441763178
C       -0.3756399174    1.6476596892    0.1032134048
N        0.9386899421    1.5303951801    0.4121064916
H        2.6511267556    0.4722587728    0.6965076785
H        1.9942862146   -1.7040560990    0.2778812028
H       -0.1756262958   -2.5181548914   -0.3345487966
H       -2.3362211410    1.1439337688   -0.4377813854
H       -0.7139673448    2.6842468035    0.1427987902
C       -1.2228534929   -0.7003799856   -0.3777570061
H       -2.1282225777   -1.2342199431   -0.6574162470
$end

$rem
method                b3lyp
basis                 6-31+g(d,p)
unrestricted          true
symmetry              off
sym_ignore            true
incdft                false
incfock               0
scf_convergence       6
thresh                14
jobtype               sp
scf_guess             read
scf_algorithm         diis
max_scf_cycles        100
stability_analysis    true
max_cis_cycles        100
cis_n_roots           4
$end

