$molecule
0 2
C        1.6067110968    0.3811557007    0.2140302826
C        1.0946037201   -0.9610770705    0.4603631970
C       -0.0781877055   -1.4112979216   -0.0953355701
C       -1.3438292059    0.7148062540   -0.2688387834
C       -0.4312415469    1.5773140334    0.2816238794
N        0.9519684901    1.4932250988    0.1540622851
H        2.6860944612    0.4660508713    0.0472936596
H        1.7623287237   -1.6640580695    0.9459171912
H       -0.2896586875   -2.4798847454   -0.0241018620
H       -2.3798456273    1.0461693520   -0.3044966271
H       -0.7714491356    2.5132859298    0.7149929997
C       -1.0676824390   -0.6076464325   -0.7281654146
H       -1.7469670521   -1.0763798500   -1.4377010843
$end

$rem
method                b3lyp
basis                 6-31+g(d,p)
unrestricted          true
symmetry              off
sym_ignore            true
incdft                false
incfock               0
scf_convergence       8
thresh                14
jobtype               opt
scf_guess             read
scf_algorithm         diis
max_scf_cycles        100
geom_opt_max_cycles   300
$end

