$molecule
0 2
C        1.5953634426    0.3477174267    0.4386172245
C        1.2099226352   -0.9556867766    0.1860617932
C       -0.0918997649   -1.4408740635   -0.1953800545
C       -1.3486149852    0.7292625838   -0.2462227673
C       -0.3744798668    1.6453504102    0.1029430103
N        0.9379269961    1.5301650247    0.4155429285
H        2.6452269771    0.4696487451    0.7144154812
H        1.9899443681   -1.7059729163    0.2906697537
H       -0.1716686725   -2.5157835074   -0.3450325069
H       -2.3347673097    1.1432683327   -0.4425845824
H       -0.7130837002    2.6830591646    0.1399434110
C       -1.2197927979   -0.6992142018   -0.3849399394
H       -2.1240773219   -1.2309402222   -0.6740337519
$end

$rem
method                b3lyp
basis                 6-31g(d)
unrestricted          true
symmetry              off
sym_ignore            true
incdft                false
incfock               0
scf_convergence       8
thresh                14
jobtype               opt
scf_guess             core
scf_guess_mix         5
scf_algorithm         diis
max_scf_cycles        100
geom_opt_max_cycles   300
$end

