$molecule
0 2
C        1.6111704990    0.3358593785    0.1605825598
C        1.0628683565   -0.9080813184    0.2815581989
C       -0.3290686396   -1.2123456998    0.0898206076
C       -1.2885989277    0.4193146227   -0.0296383863
C       -0.3825184481    1.5144614431    0.1621444326
N        0.9272854959    1.5299721336    0.1302061722
H        2.6873589480    0.4566735318    0.2703350687
H        1.7101194559   -1.7349458821    0.5683416955
H       -0.7262795607   -2.0885155966    0.6118896774
H       -2.2903398816    0.5565190679    0.3794029279
H       -0.8521649083    2.4733461088    0.4062682571
C       -1.0830336906   -0.6417582912   -0.9961770118
H       -1.0539536082   -0.7088363548   -2.0750900486
$end

$rem
method                b3lyp
basis                 6-31g(d)
unrestricted          true
symmetry              off
sym_ignore            true
incdft                false
incfock               0
scf_convergence       8
thresh                14
jobtype               ts
scf_guess             read
scf_algorithm         diis
max_scf_cycles        100
geom_opt_max_cycles   500
geom_opt_dmax         100
geom_opt_tol_gradient 10
geom_opt_hessian      read
$end

