$molecule
0 2
C        1.5648095227    0.3048914747    0.0235933355
C        1.0240268137   -0.9381479498    0.2910954512
C       -0.3629757636   -1.2134585017    0.1197093303
C       -1.3169449344    0.3973856552   -0.0345343821
C       -0.4277473817    1.4959225523    0.1639445795
N        0.8775844119    1.4834852468    0.0109339264
H        2.6472489530    0.4224683991    0.0216519709
H        1.6632111897   -1.7094665539    0.7161725188
H       -0.8522989283   -1.9928670905    0.7043253216
H       -2.2986960649    0.4270079013    0.4408609915
H       -0.8578519497    2.4280950330    0.5360782575
C       -1.0432680616   -0.6290720730   -1.0210526787
H       -0.6242527164   -0.4845809500   -2.0131344715
$end

$rem
method                b3lyp
basis                 6-31+g(d,p)
unrestricted          true
symmetry              off
sym_ignore            true
incdft                false
incfock               0
scf_convergence       8
thresh                14
jobtype               ts
scf_guess             read
scf_algorithm         diis
max_scf_cycles        100
geom_opt_max_cycles   500
geom_opt_dmax         100
geom_opt_tol_gradient 10
geom_opt_hessian      read
$end

