$molecule
0 2
C        1.5286564080    0.3902593351   -0.2351654439
C        0.6872409828   -0.8528845778    0.0304922217
C       -0.6295034296   -0.5150137283   -0.7595644898
C       -1.1528297976    0.1518669129    0.5354444224
C       -0.5304017605    0.9647109220   -0.6913757028
N        0.8347262269    1.4122124347   -0.5895994139
H        2.5936668892    0.4665516664   -0.0262275024
H        1.1788224180   -1.8235410863   -0.0544178491
H       -1.1605439096   -1.1327097683   -1.4764933270
H       -2.1642826977    0.3944223823    0.8427326584
H       -1.2332577065    1.6097159869   -1.2070020273
C       -0.1130656199   -0.5300159174    1.2902507148
H        0.1607719970   -0.5355745619    2.3409257385
$end

$rem
method                b3lyp
basis                 6-31+g(d,p)
unrestricted          true
symmetry              off
sym_ignore            true
incdft                false
incfock               0
scf_convergence       8
thresh                14
jobtype               sp
scf_guess             read
scf_algorithm         diis
max_scf_cycles        100
scf_final_print       1
$end

