$molecule
0 2
C        1.4956025620    0.4670410401   -0.2289301929
C        0.7034406651   -0.8338871506    0.0039744227
C       -0.3040337305   -0.6069548509   -1.1287569747
C       -1.0784236043    0.4520358916    0.7473299644
C       -0.6401905716    0.8106003920   -0.6828536631
N        0.7468592491    1.4284081184   -0.6137036797
H        2.5656966896    0.5836322925   -0.0710247403
H        1.2670569459   -1.7648816519    0.0572083986
H       -1.0510917850   -1.3449674063   -1.4127903032
H       -1.8838475559    0.9318405767    1.2906739532
H       -1.3225631791    1.4223563015   -1.2692059068
C       -0.2618234258   -0.5303782599    1.1692420315
H       -0.2366822596   -1.0148452932    2.1388366903
$end

$rem
method                b3lyp
basis                 6-31+g(d,p)
unrestricted          true
symmetry              off
sym_ignore            true
incdft                false
incfock               0
scf_convergence       6
thresh                14
jobtype               sp
scf_guess             read
scf_algorithm         diis
max_scf_cycles        100
stability_analysis    true
max_cis_cycles        100
cis_n_roots           4
$end

