$molecule
0 2
C        1.5186454494    0.4306431752   -0.2649917001
C        0.7066161140   -0.8345482496    0.0236470994
C       -0.4875898875   -0.5656854349   -0.9167757918
C       -1.0823660239    0.3454561497    0.6498405110
C       -0.5767990248    0.9009474342   -0.6818950943
N        0.7955236922    1.4276000198   -0.6261323405
H        2.5860639640    0.5310684568   -0.0748013032
H        1.2281480620   -1.7915234230    0.0071053808
H       -1.1393400006   -1.2542861643   -1.4353047767
H       -2.0575646522    0.6346945230    1.0342100641
H       -1.2822370536    1.5107154607   -1.2410710317
C       -0.1411255860   -0.4888878279    1.2515247408
H       -0.0855503362   -0.8627309772    2.2652087587
$end

$rem
method                b3lyp
basis                 6-31g(d)
unrestricted          true
symmetry              off
sym_ignore            true
incdft                false
incfock               0
scf_convergence       8
thresh                14
jobtype               ts
scf_guess             read
scf_algorithm         diis
max_scf_cycles        100
geom_opt_max_cycles   500
geom_opt_dmax         100
geom_opt_tol_gradient 10
geom_opt_hessian      read
$end

