$molecule
0 2
C        1.5166477864    0.4255975744   -0.2648491194
C        0.7017095658   -0.8371498404    0.0257005579
C       -0.5084704804   -0.5662721640   -0.8958874576
C       -1.0896273560    0.3318537656    0.6409572590
C       -0.5758996295    0.9040783389   -0.6799339047
N        0.7973788350    1.4246771414   -0.6267455690
H        2.5833301183    0.5262412780   -0.0707013128
H        1.2181423484   -1.7972604457    0.0069039526
H       -1.1229399370   -1.2412126151   -1.4749500565
H       -2.0610669785    0.6228294423    1.0337533074
H       -1.2815114807    1.5135992720   -1.2389360903
C       -0.1362249567   -0.4920330669    1.2555527619
H       -0.0590431185   -0.8314855379    2.2797001879
$end

$rem
method                b3lyp
basis                 6-31+g(d,p)
unrestricted          true
symmetry              off
sym_ignore            true
incdft                false
incfock               0
scf_convergence       6
thresh                14
jobtype               sp
scf_guess             read
scf_algorithm         diis
max_scf_cycles        100
stability_analysis    true
max_cis_cycles        100
cis_n_roots           4
$end

