$molecule
0 2
C        1.5200175892    0.4258871807   -0.2674924398
C        0.7040930143   -0.8341237823    0.0296178461
C       -0.5138236743   -0.5670896138   -0.8863604372
C       -1.0883740671    0.3373673747    0.6435784656
C       -0.5773086353    0.9042937100   -0.6816083330
N        0.7962936072    1.4221318695   -0.6341577794
H        2.5865037431    0.5278563325   -0.0783760758
H        1.2199154053   -1.7936748067    0.0137148123
H       -1.1173050561   -1.2399639544   -1.4794878908
H       -2.0597768039    0.6259645248    1.0355800294
H       -1.2838303159    1.5117441765   -1.2396797539
C       -0.1305996837   -0.4835585560    1.2605151976
H       -0.0733804064   -0.8533713129    2.2747208754
$end

$rem
method                b3lyp
basis                 6-31+g(d,p)
unrestricted          true
symmetry              off
sym_ignore            true
incdft                false
incfock               0
scf_convergence       8
thresh                14
jobtype               sp
scf_guess             read
scf_algorithm         diis
max_scf_cycles        100
$end

