$molecule
0 2
C        1.3752161196    0.4386103007   -1.9041452740
C        0.2748442867   -1.4882525680    1.7288941625
C       -0.9539552648   -1.0441857678    1.5041220839
C       -1.3826196781   -0.0963319347    0.4703555377
C       -0.6012169490    0.5078903446   -0.4450687737
N        0.8055330511    0.2779938395   -0.5068268692
H        1.4594598234   -0.1641715423   -2.7917705009
H        0.7178028860   -2.1719860884    2.4426277962
H       -1.7597170328   -1.4130133103    2.1519418867
H       -2.4434791337    0.1392201146    0.4454802217
H       -1.0321981955    1.2011777785   -1.1731124212
C        1.5717216917    1.4342570075   -1.1258932655
H        1.9686083956    2.3787918263   -0.7966045839
$end

$rem
method                b3lyp
basis                 6-31+g(d,p)
unrestricted          true
symmetry              off
sym_ignore            true
incdft                false
incfock               0
scf_convergence       8
thresh                14
jobtype               sp
scf_guess             read
scf_algorithm         diis
max_scf_cycles        100
scf_final_print       1
$end

