$molecule
0 2
C        1.4062806294    0.1833987214   -1.4265338516
C        0.2977407986   -1.3390045594    1.1655080232
C       -0.9871515544   -1.0392284599    1.3637000837
C       -1.5903977586   -0.0613291125    0.4655901108
C       -0.7485300629    0.5991679739   -0.3586620396
N        0.6382571440    0.3122993752   -0.2238271790
H        1.5107161168   -0.6298491147   -2.1358860266
H        1.0438120471   -1.8796449871    1.7367496605
H       -1.5767312762   -1.4490794233    2.1878202514
H       -2.6539191304    0.1536280817    0.4792451170
H       -1.0488338878    1.3667136627   -1.0675914364
C        1.6728320659    1.4021005956   -1.1182617280
H        2.0521406796    2.3999691935   -1.0321011062
$end

$rem
method                b3lyp
basis                 6-31+g(d,p)
unrestricted          true
symmetry              off
sym_ignore            true
incdft                false
incfock               0
scf_convergence       8
thresh                14
jobtype               sp
scf_guess             read
scf_algorithm         diis
max_scf_cycles        100
scf_final_print       1
$end

