$molecule
0 2
C        1.4863198480    0.1406611283   -1.0286141872
C        0.3809598106   -1.5380158496    1.3020758943
C       -0.8738857295   -1.1862983077    1.0579204994
C       -1.3828425272    0.0383925413    0.4436233337
C       -0.6656426917    1.0358087735   -0.1151685255
N        0.7434507616    1.1226948511   -0.1452464393
H        1.8010587294   -0.8863420741   -0.9689244008
H        0.8579515543   -2.3839046898    1.7826767364
H       -1.6552250650   -1.8915307667    1.3739970822
H       -2.4628365451    0.1610954969    0.4621283459
H       -1.1814465117    1.9192420229   -0.4927520229
C        1.3841902028    1.3281028462   -1.4937155776
H        1.5679481640    2.1400940275   -2.1780007387
****
C        1.4390666818    0.3650342021   -0.8346071485
C        0.1644191350   -1.1216998252    0.6697838865
C       -1.0988664321   -1.1411594819    1.2047765089
C       -1.7824634220    0.0181251569    0.7219598726
C       -0.9135108469    0.7036570880   -0.0902239052
N        0.2821463619    0.0072480144   -0.1263094889
H        2.2540296003   -0.3520448358   -0.7043665071
H        0.9965376343   -1.8031861614    0.7770824777
H       -1.4940490989   -1.8990778887    1.8675329350
H       -2.7991473006    0.3107760630    0.9478370738
H       -1.0239617029    1.6205058237   -0.6498428285
C        1.5939340299    1.4338094391   -1.5904885745
H        2.3818653601    1.8580124057   -2.1931343018
$end

$rem
method                b3lyp
basis                 6-31g(d)
unrestricted          true
symmetry              off
sym_ignore            true
incdft                false
incfock               0
scf_convergence       8
thresh                14
jobtype               fsm
scf_guess             core
scf_guess_mix         5
scf_algorithm         diis
max_scf_cycles        100
fsm_nnode             21
fsm_ngrad             6
fsm_mode              2
fsm_opt_mode          2
$end

