$molecule
0 2
C        1.4574705674    0.1411748186   -1.0771187627
C        0.2558806102   -1.0119316388    0.7708051641
C       -1.0078192060   -0.9635822315    1.3198171142
C       -1.7465578230    0.0259634168    0.6044047210
C       -0.9059870263    0.5600267652   -0.3486451192
N        0.3180370875   -0.0792072147   -0.2472598099
H        1.8525255117   -0.7569400703   -1.5510343311
H        1.1255134192   -1.5958057581    1.0344822689
H       -1.3614101500   -1.5703305746    2.1419388181
H       -2.7819766513    0.2978225131    0.7565764910
H       -1.0744309166    1.2990093789   -1.1173139250
C        2.0024800555    1.3225385380   -1.2806857526
H        1.8824903318    2.3504040034   -0.9702170005
$end

$rem
method                b3lyp
basis                 6-31+g(d,p)
unrestricted          true
symmetry              off
sym_ignore            true
incdft                false
incfock               0
scf_convergence       8
thresh                14
jobtype               opt
scf_guess             read
scf_algorithm         diis
max_scf_cycles        100
geom_opt_max_cycles   300
$end

