$molecule
0 2
C        1.4130909425    0.2553955414   -1.6314702719
C        0.3006226867   -1.5137682789    1.4737309381
C       -0.9483985818   -1.0725808212    1.3997276039
C       -1.4380010440   -0.0486238455    0.4705917719
C       -0.6504590910    0.6909927205   -0.3342908462
N        0.7667052774    0.5390261190   -0.2939781641
H        1.5699765967   -0.6070273248   -2.2556114141
H        0.8316286599   -2.2231152647    2.0958631375
H       -1.6972836087   -1.4909171798    2.0828873808
H       -2.5105359326    0.1239635684    0.4394485812
H       -1.0701971392    1.4392867446   -1.0108732738
C        1.5337065770    1.4602827052   -1.2142249932
H        1.9153604673    2.4662272598   -1.1860505799
$end

$rem
method                b3lyp
basis                 6-31+g(d,p)
unrestricted          true
symmetry              off
sym_ignore            true
incdft                false
incfock               0
scf_convergence       8
thresh                14
jobtype               opt
scf_guess             read
scf_algorithm         diis
max_scf_cycles        100
geom_opt_max_cycles   300
$end

