$molecule
0 2
C        1.4394442610    0.3649620133   -0.8343849961
C        0.1639100808   -1.1224929674    0.6688710912
C       -1.0985334685   -1.1403712941    1.2059641024
C       -1.7822872624    0.0183985249    0.7220507838
C       -0.9137218517    0.7024833780   -0.0918295297
N        0.2820549193    0.0063156003   -0.1272837992
H        2.2542222487   -0.3523359476   -0.7044093675
H        0.9957228985   -1.8043755039    0.7755890770
H       -1.4936121630   -1.8977112968    1.8694459220
H       -2.7986403232    0.3116469099    0.9487068212
H       -1.0245215360    1.6189797310   -0.6519096749
C        1.5943048934    1.4346907237   -1.5890019243
H        2.3816573030    1.8598101287   -2.1918085059
$end

$rem
method                b3lyp
basis                 6-31g(d)
unrestricted          true
symmetry              off
sym_ignore            true
incdft                false
incfock               0
scf_convergence       8
thresh                14
jobtype               opt
scf_guess             core
scf_guess_mix         5
scf_algorithm         diis
max_scf_cycles        100
geom_opt_max_cycles   300
$end

