$molecule
0 2
C        1.4628101094    0.1445654151   -1.1340797347
C        0.2894502819   -1.2705779331    1.1991555815
C       -1.0291855556   -1.1735757365    1.1517007316
C       -1.6067740671   -0.0059832272    0.4981993664
C       -0.7458529239    0.8333333120   -0.1132353455
N        0.6503805322    0.6073237525   -0.0381949649
H        1.9024752958   -0.8290432509   -1.2961894725
H        1.0315114217   -1.9725004577    1.5639368432
H       -1.6748641773   -1.9088817170    1.6385797579
H       -2.6663680847    0.2040368511    0.5575494085
H       -1.0626825773    1.7727618956   -0.5523774691
C        1.5307872932    1.3796587277   -1.4665114339
H        1.9345282626    2.2380243154   -1.9727833894
$end

$rem
method                b3lyp
basis                 6-31g(d)
unrestricted          true
symmetry              off
sym_ignore            true
incdft                false
incfock               0
scf_convergence       8
thresh                14
jobtype               freq
scf_guess             read
scf_algorithm         diis
max_scf_cycles        100
$end

