$molecule
0 2
C        1.4087790899    0.1838199692   -1.4141116078
C        0.2973510422   -1.3371744432    1.1613111933
C       -0.9877935738   -1.0473242938    1.3577904388
C       -1.5871854531   -0.0614473978    0.4659561111
C       -0.7436474367    0.6066389831   -0.3458072292
N        0.6454243124    0.3224971749   -0.2058117782
H        1.5036915323   -0.6338171678   -2.1211301216
H        1.0356461369   -1.8830589599    1.7393838374
H       -1.5846844583   -1.4658486623    2.1730632436
H       -2.6521776549    0.1503216944    0.4748920123
H       -1.0398057870    1.3764908901   -1.0541617824
C        1.6746787848    1.4011465988   -1.1079380098
H        2.0459392763    2.4068975614   -1.0876864283
$end

$rem
method                b3lyp
basis                 6-31+g(d,p)
unrestricted          true
symmetry              off
sym_ignore            true
incdft                false
incfock               0
scf_convergence       8
thresh                14
jobtype               freq
scf_guess             read
scf_algorithm         diis
max_scf_cycles        100
$end

