$molecule
0 2
C        1.3699569263    0.3876070074    0.1957650425
C        0.7962359039   -0.9232183903   -0.2634523813
C       -0.5526305225   -0.8559927556   -0.9020065705
C       -1.0690194577    0.3313604876   -0.0171178789
C       -0.3927939344    1.5972679854   -0.3723918128
N        0.9020420528    1.6063969334   -0.2031628288
H        2.2851058846    0.3384985533    0.7785630007
H        1.4040661259   -1.8219788893   -0.2466098113
H       -1.1201191894   -1.7868356441   -0.9121125867
H       -2.1353058983    0.3571356852    0.1999345805
H       -0.9107637263    2.4558016049   -0.7908191205
C       -0.1444289084   -0.5379283927    0.8388420798
H       -0.4575282654   -1.1681663062    1.6694709078
$end

$rem
method                b3lyp
basis                 6-31+g(d,p)
unrestricted          true
symmetry              off
sym_ignore            true
incdft                false
incfock               0
scf_convergence       8
thresh                14
jobtype               freq
scf_guess             read
scf_algorithm         diis
max_scf_cycles        100
$end

