$molecule
0 2
C        1.3542003206    0.3995924955    0.2294977592
C        0.8129720329   -0.9194641018   -0.2379946595
C       -0.5249928943   -0.8761636033   -0.8946753331
C       -1.0756454759    0.3189177532   -0.0458480461
C       -0.4066826333    1.5890078753   -0.3993323935
N        0.8845153309    1.6115391608   -0.1974919676
H        2.2556847122    0.3665544144    0.8331293332
H        1.4292310131   -1.8109877188   -0.2007777914
H       -1.0836612633   -1.8110997420   -0.9272774856
H       -2.1460786261    0.3339818740    0.1475323030
H       -0.9238215620    2.4384986760   -0.8347693021
C       -0.1589904230   -0.5299168238    0.8419242501
H       -0.4776427313   -1.1508238068    1.6767884602
$end

$rem
method                b3lyp
basis                 6-31+g(d,p)
unrestricted          true
symmetry              off
sym_ignore            true
incdft                false
incfock               0
scf_convergence       8
thresh                14
jobtype               rpath
scf_guess             core
scf_guess_mix         5
scf_algorithm         diis
max_scf_cycles        100
rpath_direction       1
rpath_tol_displacement 1000
rpath_max_cycles      50
geom_opt_max_cycles   300
geom_opt_hessian      read
$end

