$molecule
0 2
C        1.5126256955    0.5718827943   -0.1265345956
C        0.8242103590   -0.7654870928    0.0075501159
C       -0.3373483257   -0.6220407174   -0.9227065200
C       -1.1017192754    0.5040942641    0.7909218149
C       -0.6327356438    0.8668113360   -0.6144183946
N        0.7199768901    1.5058017760   -0.5041400591
H        2.5549161358    0.7612122999    0.1212627937
H        1.4016104120   -1.6860700303    0.0411042303
H       -0.8272480085   -1.3411343797   -1.5629885816
H       -1.8723948755    0.9418594009    1.4085591551
H       -1.3062060044    1.4370082431   -1.2514671036
C       -0.3823661472   -0.6887704934    0.9510658830
H       -0.5694571332   -1.4856880896    1.6658449782
$end

$rem
method                b3lyp
basis                 6-31+g(d,p)
unrestricted          true
symmetry              off
sym_ignore            true
incdft                false
incfock               0
scf_convergence       8
thresh                14
jobtype               sp
scf_guess             read
scf_algorithm         diis
max_scf_cycles        100
scf_final_print       1
$end

