$molecule
0 2
C        1.4883011088    0.5334039584   -0.0862221357
C        0.7321102198   -0.8091779327   -0.0266360973
C       -0.2106094674   -0.5081042567   -1.1963852389
C       -1.1344824217    0.3513739740    0.7155536687
C       -0.6243557815    0.8518053175   -0.6461538338
N        0.7312581334    1.5028126048   -0.4317572911
H        2.5402418846    0.6702635489    0.1546975354
H        1.3280535015   -1.7211524973   -0.0226906760
H       -0.9110403504   -1.2404155909   -1.5921780032
H       -1.9757290738    0.7676426317    1.2571562581
H       -1.2931065298    1.4918874087   -1.2179329529
C       -0.3189620569   -0.6500968334    1.0918336777
H       -0.3516791671   -1.2402423334    2.0007150884
$end

$rem
method                b3lyp
basis                 6-31+g(d,p)
unrestricted          true
symmetry              off
sym_ignore            true
incdft                false
incfock               0
scf_convergence       8
thresh                14
jobtype               sp
scf_guess             read
scf_algorithm         diis
max_scf_cycles        100
scf_final_print       1
$end

