$molecule
0 2
C        1.4849398096    0.6123058407   -0.1105721402
C        0.8881624123   -0.7416194639    0.0133387867
C       -0.3891806233   -0.7036322885   -0.7477046046
C       -1.1564270568    0.5371416062    0.7870898174
C       -0.6603904296    0.8480602863   -0.6202063315
N        0.6610939129    1.5173791322   -0.5034005078
H        2.5165303500    0.8505074702    0.1420375508
H        1.4789169888   -1.6484621524    0.0946325372
H       -0.7306026875   -1.4001950407   -1.5065561110
H       -1.5111754722    1.1848369585    1.5820610578
H       -1.3219624020    1.3611207714   -1.3182672804
C       -0.5352951545   -0.7817988361    0.7734237246
H       -0.7246096476   -1.6356442840    1.4141235010
$end

$rem
method                b3lyp
basis                 6-31+g(d,p)
unrestricted          true
symmetry              off
sym_ignore            true
incdft                false
incfock               0
scf_convergence       6
thresh                14
jobtype               sp
scf_guess             read
scf_algorithm         diis
max_scf_cycles        100
stability_analysis    true
max_cis_cycles        100
cis_n_roots           4
$end

