$molecule
0 2
C        1.6498617841    0.6053413523   -0.2614928007
C        1.2319943246   -0.7326085635   -0.3358821724
C       -0.2563921013   -0.7498130883   -0.4545399288
C       -1.3114987506    0.5414231106    0.8580309863
C       -0.5681885622    0.7998199937   -0.4528860814
N        0.6915153921    1.5243072685   -0.3212811176
H        2.6848606211    0.9212095018   -0.1375320144
H        1.8788730690   -1.6008780315   -0.2741638609
H       -0.6491931915   -1.3694793915   -1.2713614457
H       -1.8169574232    1.2177279921    1.5407014661
H       -1.1698818898    1.2036817918   -1.2764587002
C       -1.0612319078   -0.7723013138    0.8555262725
H       -1.3037613645   -1.5884306221    1.5313393971
$end

$rem
method                b3lyp
basis                 6-31g(d)
unrestricted          true
symmetry              off
sym_ignore            true
incdft                false
incfock               0
scf_convergence       8
thresh                14
jobtype               opt
scf_guess             core
scf_guess_mix         5
scf_algorithm         diis
max_scf_cycles        100
geom_opt_max_cycles   300
$end

