$molecule
0 2
C        1.5156601093    0.6065937158   -0.1393472137
C        0.9245491449   -0.7504467226   -0.0114805108
C       -0.3780618329   -0.6938810576   -0.7075987837
C       -1.0905906018    0.5719188792    0.8279566693
C       -0.6293880886    0.8652559333   -0.5941076961
N        0.6980911547    1.5150880079   -0.5285591757
H        2.5537852351    0.8333478985    0.0894564656
H        1.5226414238   -1.6534376985    0.0574919511
H       -0.7575517687   -1.3857116487   -1.4573028469
H       -1.7553204016    1.0959137626    1.5012025046
H       -1.3038438456    1.3736639952   -1.2833722179
C       -0.5529484317   -0.7684115150    0.8004658918
H       -0.7631580182   -1.6104142389    1.4492486791
$end

$rem
method                b3lyp
basis                 6-31g(d)
unrestricted          true
symmetry              off
sym_ignore            true
incdft                false
incfock               0
scf_convergence       6
thresh                14
jobtype               sp
scf_guess             read
scf_algorithm         diis
max_scf_cycles        100
stability_analysis    true
max_cis_cycles        100
cis_n_roots           4
$end

