$molecule
0 2
C        1.5299284714    0.5921932666   -0.1546403636
C        0.8938036152   -0.7439933803    0.0246917941
C       -0.4027000747   -0.6733633792   -0.7095373695
C       -1.0425876342    0.6084717781    0.8558604760
C       -0.6187523129    0.8852342133   -0.5850591414
N        0.7276677004    1.5146299450   -0.5380684068
H        2.5783974638    0.7999288264    0.0566902427
H        1.4648546506   -1.6661954627    0.0737171237
H       -0.7860695375   -1.3672088890   -1.4520124631
H       -1.9018337010    0.9741392775    1.4013047100
H       -1.3005949966    1.4075603001   -1.2564752454
C       -0.4695131421   -0.7429648525    0.8222042915
H       -0.6887364236   -1.5889523321    1.4653780685
$end

$rem
method                b3lyp
basis                 6-31g(d)
unrestricted          true
symmetry              off
sym_ignore            true
incdft                false
incfock               0
scf_convergence       8
thresh                14
jobtype               sp
scf_guess             read
scf_algorithm         diis
max_scf_cycles        100
$end

