$molecule
0 2
C        1.3903493882    0.0814682049    0.3758648818
C        0.4737582429   -1.0392664178   -0.0968126950
C       -0.9551984259   -0.9984758147    0.2927672981
C       -1.5301987174    0.2624326007    0.4077373892
C       -0.7285230016    1.3646594294    0.1545045873
N        0.6562574432    1.2314302915   -0.2016231060
H        2.3337166659    0.1346278017    0.9008095744
H        0.9394358433   -2.0196644457   -0.1997041251
H       -1.5059102586   -1.9166459800    0.4655425598
H       -2.5738416823    0.3934902827    0.6790054032
H       -1.0857532281    2.3879526240    0.1850166851
C        1.0172947116    0.0483537604   -1.0168851368
H        1.5686130190    0.0696376630   -1.9462233158
$end

$rem
method                b3lyp
basis                 6-31+g(d,p)
unrestricted          true
symmetry              off
sym_ignore            true
incdft                false
incfock               0
scf_convergence       8
thresh                14
jobtype               sp
scf_guess             core
scf_guess_mix         5
scf_algorithm         diis
max_scf_cycles        100
$end

