$molecule
0 2
C        1.4590727568    0.8320084931   -0.2138011157
C        0.2495064295   -1.4019177979   -0.3183714406
C       -1.0125901323   -1.0486075364    0.0633252545
C       -1.4714426484    0.2703698080    0.4188854643
C       -0.7482559236    1.4503701221    0.4515044901
N        0.5451336609    1.7504915536    0.1825522642
H        2.4413332823    1.2773898842   -0.3788855924
H        0.4234767287   -2.4495068089   -0.5534868658
H       -1.7588205901   -1.8387162351    0.1066704063
H       -2.5188970166    0.3563580719    0.6965546020
H       -1.3182673966    2.3304766482    0.7532831342
C        1.3904792442   -0.5308395084   -0.4453777349
H        2.3192716050   -0.9978766949   -0.7628528659
$end

$rem
method                b3lyp
basis                 6-31+g(d,p)
unrestricted          true
symmetry              off
sym_ignore            true
incdft                false
incfock               0
scf_convergence       6
thresh                14
jobtype               sp
scf_guess             read
scf_algorithm         diis
max_scf_cycles        100
stability_analysis    true
max_cis_cycles        100
cis_n_roots           4
$end

