$molecule
0 2
C        1.4693264913    0.7499762048    0.0421642565
C        0.2969521617   -1.3690105628   -0.2916835815
C       -0.9079176123   -1.0520036093    0.2982717789
C       -1.4633999064    0.2740895696    0.3004028680
C       -0.7513613842    1.4414716685    0.2951634910
N        0.6029853910    1.5700849278    0.5304858102
H        2.5036297248    0.8825759866    0.3794345876
H        0.5811191067   -2.4228584001   -0.3504463516
H       -1.5306794998   -1.8625512841    0.6633969273
H       -2.5502166698    0.3590953896    0.3274473784
H       -1.2817131121    2.3915303046    0.2602229699
C        1.1936296321   -0.3980463486   -0.8213711433
H        1.8025849940   -0.5865718961   -1.7023422535
$end

$rem
method                b3lyp
basis                 6-31+g(d,p)
unrestricted          true
symmetry              off
sym_ignore            true
incdft                false
incfock               0
scf_convergence       8
thresh                14
jobtype               opt
scf_guess             read
scf_algorithm         diis
max_scf_cycles        100
geom_opt_max_cycles   300
$end

