$molecule
0 2
C        1.2967611605   -0.2269401889    0.0033222863
C        0.3287660656   -1.3240053687    0.2275612724
C       -0.9952974761   -1.0801445702    0.3086064903
C       -1.5134644741    0.2809671802    0.3171570669
C       -0.6953981492    1.3359388170    0.1459533020
N        0.6855496415    1.1859398741   -0.1349747111
H        2.2193460553   -0.2544735426    0.5883789516
H        0.7254461330   -2.3280163089    0.3613190951
H       -1.6912317156   -1.8992119366    0.4698305625
H       -2.5588308425    0.4478335472    0.5613985465
H       -1.0177712032    2.3635405689    0.2905282445
C        1.2240879752    0.5378306443   -1.2476140604
H        1.9920368296    0.9607412841   -1.8914670467
$end

$rem
method                b3lyp
basis                 6-31g(d)
unrestricted          true
symmetry              off
sym_ignore            true
incdft                false
incfock               0
scf_convergence       8
thresh                14
jobtype               opt
scf_guess             core
scf_guess_mix         5
scf_algorithm         diis
max_scf_cycles        100
geom_opt_max_cycles   300
$end

