$molecule
0 2
C        1.3719436764    0.1673485149    0.2934192663
C        0.4830535171   -1.0466054607   -0.0817588098
C       -0.9421356918   -0.9828063532    0.3265233209
C       -1.5253823204    0.2520937070    0.4050403958
C       -0.7248474755    1.3875192505    0.1294994651
N        0.6276356574    1.3438634864   -0.0501085152
H        2.2783272381    0.2035167217    0.8900294873
H        0.9694321922   -2.0223439636   -0.0183033866
H       -1.4732624941   -1.8987010564    0.5650071969
H       -2.5774516516    0.3786488797    0.6422634366
H       -1.1683339442    2.3646047960   -0.0414740147
C        1.1001281186   -0.1321214816   -1.0765998445
H        1.5458324944   -0.0372350944   -2.0523912582
$end

$rem
method                b3lyp
basis                 6-31+g(d,p)
unrestricted          true
symmetry              off
sym_ignore            true
incdft                false
incfock               0
scf_convergence       8
thresh                14
jobtype               freq
scf_guess             read
scf_algorithm         diis
max_scf_cycles        100
$end

