$molecule
0 2
C        1.3975604365    0.2893366516    0.2738343338
C        0.4497343520   -1.1037127110   -0.1254540174
C       -0.9499061730   -0.9863810748    0.2817100735
C       -1.5288917035    0.2579987109    0.3916347753
C       -0.7672743896    1.4013831032    0.1600493258
N        0.5816962639    1.3662840041   -0.1384866300
H        2.3767518953    0.4704674416    0.7208730377
H        0.8651829410   -2.1192075306   -0.0646654809
H       -1.5277251015   -1.8969516754    0.4555089363
H       -2.5726182870    0.3678633672    0.6749331096
H       -1.2027457204    2.3975895783    0.2075505739
C        1.0794856685   -0.1482905700   -1.0401948189
H        1.7636891343   -0.3185973487   -1.8661464787
$end

$rem
method                b3lyp
basis                 6-31g(d)
unrestricted          true
symmetry              off
sym_ignore            true
incdft                false
incfock               0
scf_convergence       8
thresh                14
jobtype               sp
scf_guess             core
scf_guess_mix         5
scf_algorithm         diis
max_scf_cycles        100
$end

