$molecule
0 2
C        1.3718026024    0.6853394123   -0.7608391071
C       -0.1031322988   -0.9196866531   -0.4398447072
C       -1.0435819050   -1.0966359743    0.5954594676
C       -1.4951384079    0.1914185948    0.9912954396
C       -0.8614620660    1.1351759910    0.2083199795
N       -0.0518658371    0.4933807423   -0.7279842661
H        1.8077787828    1.6120568235   -1.1253694115
H        0.0523217485   -1.6155700763   -1.2560471783
H       -1.3985190450   -2.0468836982    0.9709619945
H       -2.2338394587    0.4042508700    1.7537145063
H       -0.8788222076    2.2143914135    0.2698709923
C        1.8833508370   -0.4556504244   -0.3063419341
H        2.8870434975   -0.8687430582   -0.2561667947
$end

$rem
method                b3lyp
basis                 6-31+g(d,p)
unrestricted          true
symmetry              off
sym_ignore            true
incdft                false
incfock               0
scf_convergence       8
thresh                14
jobtype               sp
scf_guess             core
scf_guess_mix         5
scf_algorithm         diis
max_scf_cycles        100
$end

