$molecule
0 2
C        1.3377229558    0.8633036749   -0.5689202540
C        0.2724920303   -1.4150735814   -0.2177472916
C       -0.9149507936   -1.0758508718    0.3588085212
C       -1.3818425014    0.2524025871    0.6619370436
C       -0.7392129679    1.4561108584    0.4366243794
N        0.4581320222    1.7817411342   -0.1018797250
H        2.2443347132    1.3294139244   -0.9610036728
H        0.4653712391   -2.4742036290   -0.3764581414
H       -1.5907552978   -1.8872145573    0.6217163962
H       -2.3627093235    0.3229761402    1.1258508807
H       -1.2988404140    2.3394672015    0.7524234849
C        1.3143769104   -0.5159722949   -0.6461101137
H        2.1958814278   -0.9771005867   -1.0852415070
****
C        1.5314199521    0.2562226162   -0.6994727341
C       -0.2486783322   -1.2924854635    0.0279895950
C       -1.4837525277   -1.1759016125    0.6142339642
C       -1.7254334730    0.2179735994    0.8213100777
C       -0.6310879784    0.9027318449    0.3542539778
N        0.2776075752   -0.0200801288   -0.1340444381
H        2.0616369989   -0.6459241712   -1.0163551798
H        0.3112515763   -2.1592023569   -0.2937516649
H       -2.1442699156   -1.9938766489    0.8681421859
H       -2.6066874510    0.6633433528    1.2633376227
H       -0.4045494575    1.9578842873    0.3190208304
C        2.0713790673    1.4479513979   -0.8603087122
H        2.9911639655    1.8413632835   -1.2643555247
$end

$rem
method                b3lyp
basis                 6-31g(d)
unrestricted          true
symmetry              off
sym_ignore            true
incdft                false
incfock               0
scf_convergence       8
thresh                14
jobtype               fsm
scf_guess             core
scf_guess_mix         5
scf_algorithm         diis
max_scf_cycles        100
fsm_nnode             21
fsm_ngrad             6
fsm_mode              2
fsm_opt_mode          2
$end

