$molecule
0 2
C        1.4394457306    0.5646817582   -0.7302115419
C       -0.3410526770   -1.0876079090   -0.2817722067
C       -1.4627558793   -1.1008220908    0.5087814090
C       -1.7032907424    0.2478389378    0.9323122281
C       -0.7239384762    1.0362909139    0.3759232468
N        0.1168036679    0.2193391227   -0.3658001559
H        1.5612461904    1.5903536999   -1.0914274729
H        0.1701903128   -1.8692263339   -0.8205980739
H       -2.0528204976   -1.9719087103    0.7521425287
H       -2.5030007055    0.5894694162    1.5775847811
H       -0.5296098056    2.0938244873    0.4609624860
C        2.4494455775   -0.2742967757   -0.6196516846
H        3.5152735450   -0.3050925565   -0.7812165637
$end

$rem
method                b3lyp
basis                 6-31+g(d,p)
unrestricted          true
symmetry              off
sym_ignore            true
incdft                false
incfock               0
scf_convergence       8
thresh                14
jobtype               opt
scf_guess             read
scf_algorithm         diis
max_scf_cycles        100
geom_opt_max_cycles   300
$end

