$molecule
0 2
C        1.3741838279    0.6746027782   -0.6999838091
C        0.1918183692   -1.1266195425   -0.0801984832
C       -1.0612641464   -1.0100917319    0.4828706694
C       -1.6607870448    0.2302879281    0.8200295328
C       -0.8607983180    1.3160994385    0.4320227296
N        0.1432445501    0.9117241897   -0.2893267737
H        2.0481946600    1.4576256560   -1.0468862701
H        0.5861609541   -2.1151193975   -0.2527161817
H       -1.6209189134   -1.9270354420    0.6819493767
H       -2.6528341376    0.3622501212    1.2494743836
H       -1.1083157955    2.3515600204    0.6830028911
C        1.7571038603   -0.6120013346   -0.8465980763
H        2.8001483764   -0.7804387207   -1.2166110083
$end

$rem
method                b3lyp
basis                 6-31g(d)
unrestricted          true
symmetry              off
sym_ignore            true
incdft                false
incfock               0
scf_convergence       8
thresh                14
jobtype               ts
scf_guess             read
scf_algorithm         diis
max_scf_cycles        100
geom_opt_max_cycles   500
geom_opt_dmax         100
geom_opt_tol_gradient 10
geom_opt_hessian      read
$end

