$molecule
0 2
C        1.3739565980    0.6816414054   -0.7582440069
C       -0.1036549007   -0.9196312082   -0.4353474902
C       -1.0448833464   -1.0955888954    0.5962483288
C       -1.4961728969    0.1918454279    0.9909642047
C       -0.8608294512    1.1324022267    0.2097780239
N       -0.0513418268    0.4919396068   -0.7261443168
H        1.8048826430    1.6094277272   -1.1285132546
H        0.0506380389   -1.6149275650   -1.2528216090
H       -1.4055055618   -2.0458360895    0.9677364295
H       -2.2387577256    0.4046726716    1.7504512201
H       -0.8738536990    2.2122378299    0.2718808218
C        1.8860208148   -0.4561075567   -0.3039169347
H        2.8954375558   -0.8592316177   -0.2650424359
$end

$rem
method                b3lyp
basis                 6-31+g(d,p)
unrestricted          true
symmetry              off
sym_ignore            true
incdft                false
incfock               0
scf_convergence       8
thresh                14
jobtype               freq
scf_guess             read
scf_algorithm         diis
max_scf_cycles        100
$end

