$molecule
0 2
C        1.2179149434    0.1247694157   -0.0301907497
C        0.6084177021   -0.8814384173    0.9592241678
C       -0.7058703275   -0.9479663074    0.6877230016
C       -0.9620341025    0.0121806728   -0.4937019328
C       -0.5832635571    1.4158531267    0.0461801660
N        0.6603167127    1.5098625044    0.3312483434
H        2.3015806614    0.1451485149   -0.1192448897
H        1.1548541111   -1.3789023180    1.7516600165
H       -1.4749383105   -1.5064084993    1.2081794482
H       -1.9104884951   -0.0808782790   -1.0210528782
H       -1.2807257797    2.2379662972    0.1934312263
C        0.3552925298   -0.2065778260   -1.2257351744
H        0.5830981467   -0.4769559645   -2.2467667382
$end

$rem
method                b3lyp
basis                 6-31+g(d,p)
unrestricted          true
symmetry              off
sym_ignore            true
incdft                false
incfock               0
scf_convergence       8
thresh                14
jobtype               sp
scf_guess             read
scf_algorithm         diis
max_scf_cycles        100
scf_final_print       1
$end

