$molecule
0 2
C        1.2214628000    0.0608277424   -0.0323574882
C        0.6041937545   -0.8892691539    0.9978613589
C       -0.7100448091   -0.9517040170    0.7314628528
C       -0.9604582558   -0.0438604289   -0.4833593652
C       -0.5641358383    1.3805540591   -0.0205439714
N        0.6842111509    1.4753395300    0.2512287681
H        2.3050788893    0.0692712934   -0.1253073357
H        1.1469894326   -1.3575771368    1.8096238223
H       -1.4846406833   -1.4804139322    1.2733196261
H       -1.9110920790   -0.1470829796   -1.0053105181
H       -1.2477983797    2.2209653928    0.0835624350
C        0.3551212451   -0.3027131347   -1.2232575392
H        0.5611127723   -0.0343372340   -2.2569226456
$end

$rem
method                b3lyp
basis                 6-31+g(d,p)
unrestricted          true
symmetry              off
sym_ignore            true
incdft                false
incfock               0
scf_convergence       8
thresh                14
jobtype               sp
scf_guess             read
scf_algorithm         diis
max_scf_cycles        100
scf_final_print       1
$end

