$molecule
0 2
C        1.2200208590    0.2021307065   -0.0427257222
C        0.6251242694   -0.8655384578    0.8880243588
C       -0.6898767842   -0.9348101996    0.6091423496
C       -0.9584593657    0.0871177841   -0.5145908733
C       -0.5911206233    1.4621958467    0.0804508068
N        0.6511026457    1.5514332993    0.3671480094
H        2.3037575172    0.2321697063   -0.1300456364
H        1.1778668061   -1.4132523075    1.6436468416
H       -1.4477267316   -1.5467440418    1.0868727038
H       -1.9062384350    0.0051128684   -1.0448870829
H       -1.2946692225    2.2708487463    0.2662445315
C        0.3636754105   -0.1115510051   -1.2633594307
H        0.5465436545   -0.9391129459   -1.9459208559
$end

$rem
method                b3lyp
basis                 6-31+g(d,p)
unrestricted          true
symmetry              off
sym_ignore            true
incdft                false
incfock               0
scf_convergence       8
thresh                14
jobtype               sp
scf_guess             core
scf_guess_mix         5
scf_algorithm         diis
max_scf_cycles        100
$end

