$molecule
0 2
C        1.2127284453    0.0368668508    0.0376955866
C        0.6305475271   -1.0403910836    0.9196822095
C       -0.6978252866   -1.0715380599    0.7284585833
C       -1.0554573233   -0.1049445077   -0.3428226586
C       -0.3916610929    1.3472194381   -0.2055674399
N        0.7799448540    1.4020983627    0.5664737878
H        2.2833498181    0.0047243447   -0.1688803133
H        1.1916039718   -1.5535079892    1.6923899021
H       -1.4280039247   -1.6335127322    1.3009123980
H       -2.0248870876   -0.0931807635   -0.8314089896
H       -0.9994379607    2.2239168004   -0.4092748159
C        0.1723412475    0.2393270252   -1.1062039834
H        0.3267568125    0.2429223137   -2.1814542672
****
C        1.3960047269    0.7443018621   -0.5954189973
C        0.3638135561   -1.3568990652    0.3885838245
C       -0.9310055931   -0.9688285091    0.5640191743
C       -1.4995462479    0.3164410222    0.2488094390
C       -0.8676961993    1.4212114371   -0.2917811648
N        0.4050748128    1.6636694821   -0.6810537633
H        2.3482774842    1.1361082812   -0.9595237342
H        0.6250901799   -2.3715894358    0.6822452920
H       -1.6174295290   -1.7003834628    0.9857294158
H       -2.5593123687    0.4374109800    0.4599827906
H       -1.5133069195    2.2893138673   -0.4428508051
C        1.4395914110   -0.5624040352   -0.1485169705
H        2.4104446867   -1.0483524238   -0.2102245010
$end

$rem
method                b3lyp
basis                 6-31g(d)
unrestricted          true
symmetry              off
sym_ignore            true
incdft                false
incfock               0
scf_convergence       8
thresh                14
jobtype               fsm
scf_guess             core
scf_guess_mix         5
scf_algorithm         diis
max_scf_cycles        100
fsm_nnode             21
fsm_ngrad             6
fsm_mode              2
fsm_opt_mode          2
$end

