$molecule
0 2
C        1.3961144626    0.7443287351   -0.5949057701
C        0.3638830522   -1.3569233185    0.3887503850
C       -0.9309063657   -0.9687286098    0.5641208119
C       -1.4995148267    0.3164884528    0.2491114346
C       -0.8675639527    1.4213156265   -0.2914905986
N        0.4049445867    1.6637250928   -0.6813184785
H        2.3481203618    1.1360639442   -0.9596923838
H        0.6249346450   -2.3717724651    0.6820819120
H       -1.6175026484   -1.7004657683    0.9852889931
H       -2.5592582287    0.4374709098    0.4602604562
H       -1.5133484726    2.2891354581   -0.4434661576
C        1.4396285374   -0.5623589460   -0.1482839230
H        2.4104688491   -1.0482791116   -0.2104566812
$end

$rem
method                b3lyp
basis                 6-31g(d)
unrestricted          true
symmetry              off
sym_ignore            true
incdft                false
incfock               0
scf_convergence       8
thresh                14
jobtype               opt
scf_guess             core
scf_guess_mix         5
scf_algorithm         diis
max_scf_cycles        100
geom_opt_max_cycles   300
$end

