$molecule
0 2
C        1.2122158044    0.2649230617    0.0565675483
C        0.6273534282   -1.0108918962    0.8829546424
C       -0.7078680637   -0.9428386213    0.7335138050
C       -1.0651254134    0.0836865077   -0.3333201865
C       -0.6071253169    1.4886695346   -0.0532485272
N        0.6106758825    1.6199895617    0.3381730558
H        2.2730599751    0.4828779523   -0.1324635043
H        1.0959365337   -1.8930228118    1.3391524051
H       -1.4414861525   -1.6340444837    1.1585232511
H       -2.1576898381    0.0933939779   -0.5184747108
H       -1.2434754182    2.3253110707   -0.3207439869
C        0.4209734629   -0.1939470392   -1.1534230703
H        0.9467093510   -0.7174538942   -1.9562567150
$end

$rem
method                b3lyp
basis                 6-31g(d)
unrestricted          true
symmetry              off
sym_ignore            true
incdft                false
incfock               0
scf_convergence       8
thresh                14
jobtype               freq
scf_guess             read
scf_algorithm         diis
max_scf_cycles        100
$end

