$molecule
0 2
C        1.3165483078   -0.1088114222    0.0324810691
C        0.4480150241   -1.2268466465    0.4587209889
C       -0.8962136219   -1.0932364106    0.5003881265
C       -1.5345316723    0.1958923192    0.2711084259
C       -0.8126120847    1.2778829784   -0.0836735276
N        0.5783437721    1.2040270635   -0.3496592469
H        2.2363881049    0.0488452630    0.5995266632
H        0.9304809464   -2.1475349714    0.7778218605
H       -1.5154733997   -1.9295170571    0.8115451186
H       -2.5920635030    0.3095591578    0.4897950467
H       -1.2248209825    2.2821570916   -0.1074921216
C        1.1763251941    0.4170699307   -1.3306386024
H        1.8896139147    0.7705127035   -2.0699238004
$end

$rem
method                b3lyp
basis                 6-31+g(d,p)
unrestricted          true
symmetry              off
sym_ignore            true
incdft                false
incfock               0
scf_convergence       8
thresh                14
jobtype               sp
scf_guess             read
scf_algorithm         diis
max_scf_cycles        100
scf_final_print       1
$end

