$molecule
0 2
C        1.3127821609   -0.0975170434    0.0429889822
C        0.4495302049   -1.2278573684    0.4504356029
C       -0.8931772870   -1.1032169608    0.4863742998
C       -1.5384400085    0.1829397450    0.2617716063
C       -0.8213794854    1.2682334863   -0.0840785854
N        0.5726430580    1.2083824747   -0.3339975311
H        2.2245575760    0.0623983828    0.6240245080
H        0.9373115305   -2.1508125059    0.7561629190
H       -1.5108367987   -1.9468426359    0.7828363665
H       -2.5987864045    0.2871563109    0.4740187789
H       -1.2423038934    2.2696237481   -0.1135147157
C        1.1871834179    0.4348999364   -1.3192550327
H        1.9209159297    0.8126124300   -2.0277671992
****
C        1.6206863912    0.1639680038   -0.8020044297
C        0.1881315629   -1.5841032205    1.2879900258
C       -1.0197172133   -1.2123556446    0.8873683060
C       -1.4326340420    0.0339392760    0.2453226063
C       -0.6401105781    1.0414661278   -0.1770190011
N        0.7590354153    1.1210209872   -0.0029032136
H        1.9242631762   -0.8656300607   -0.7308183619
H        0.5906042800   -2.4477793889    1.8035663510
H       -1.8413623619   -1.9179738174    1.0742716886
H       -2.5039764228    0.1646869333    0.1149926984
H       -1.0952730253    1.9388153736   -0.5974972305
C        1.5854798544    1.3658623963   -1.2390912839
H        1.8648729635    2.1980830339   -1.8641781555
$end

$rem
method                b3lyp
basis                 6-31g(d)
unrestricted          true
symmetry              off
sym_ignore            true
incdft                false
incfock               0
scf_convergence       8
thresh                14
jobtype               fsm
scf_guess             core
scf_guess_mix         5
scf_algorithm         diis
max_scf_cycles        100
fsm_nnode             21
fsm_ngrad             6
fsm_mode              2
fsm_opt_mode          2
$end

