$molecule
0 2
C        1.7124023074    0.3570010938   -0.2954301372
C        0.1782871412   -1.8207164634    0.7523134609
C       -0.9976233437   -1.2167238966    0.7988114462
C       -1.4142363806    0.0897522221    0.2759000108
C       -0.6959589012    1.1491340711   -0.1582265402
N        0.6895701670    1.4414244162   -0.1032102182
H        2.2501400818   -0.3459026385    0.3117679468
H        0.5779547538   -2.7779833393    1.0602689736
H       -1.8122977856   -1.7822445894    1.2725577962
H       -2.4928310126    0.2253100378    0.2393135817
H       -1.2522810800    2.0150319703   -0.5158559720
C        1.5281503633    1.1130942520   -1.3165792116
H        1.7220781617    1.5315243228   -2.2883845309
$end

$rem
method                b3lyp
basis                 6-31+g(d,p)
unrestricted          true
symmetry              off
sym_ignore            true
incdft                false
incfock               0
scf_convergence       8
thresh                14
jobtype               opt
scf_guess             read
scf_algorithm         diis
max_scf_cycles        100
geom_opt_max_cycles   300
$end

