$molecule
0 2
C        1.6820569399    0.3169688837   -0.2373610110
C        0.1907787383   -1.7788354125    0.6453504685
C       -0.9909686898   -1.2008274153    0.7779623119
C       -1.4329890698    0.1086167491    0.2818620048
C       -0.7151988343    1.1667062145   -0.1501464294
N        0.6784239362    1.4387843657   -0.1198135413
H        2.2796806844   -0.2765765260    0.4267528756
H        0.6275758599   -2.7284552550    0.9273115106
H       -1.7711026419   -1.7739195653    1.2973987706
H       -2.5121911216    0.2424227112    0.2646041912
H       -1.2632668541    2.0426333613   -0.4944351930
C        1.5034656264    1.0245418155   -1.2994760523
H        1.7170898977    1.3966415278   -2.2867632908
$end

$rem
method                b3lyp
basis                 6-31+g(d,p)
unrestricted          true
symmetry              off
sym_ignore            true
incdft                false
incfock               0
scf_convergence       8
thresh                14
jobtype               rpath
scf_guess             core
scf_guess_mix         5
scf_algorithm         diis
max_scf_cycles        100
rpath_direction       1
rpath_tol_displacement 500
rpath_max_cycles      50
geom_opt_max_cycles   300
geom_opt_hessian      read
$end

