$molecule
0 2
C        1.3114567755   -0.1162065320    0.0259616590
C        0.4418844051   -1.2390916361    0.4482167373
C       -0.8976437888   -1.0931732683    0.5296770564
C       -1.5361078306    0.1962499874    0.2900240044
C       -0.8149818560    1.2699849579   -0.0880329560
N        0.5802056252    1.1956692424   -0.3332554452
H        2.2292437415    0.0289492024    0.5999304189
H        0.9238603706   -2.1681014271    0.7425251969
H       -1.5158977891   -1.9220822517    0.8645391360
H       -2.5958708448    0.3110788104    0.4950543167
H       -1.2334582694    2.2683902757   -0.1610446985
C        1.1892003901    0.4340649579   -1.3304920756
H        1.9114635398    0.8129691389   -2.0498567338
$end

$rem
method                b3lyp
basis                 6-31+g(d,p)
unrestricted          true
symmetry              off
sym_ignore            true
incdft                false
incfock               0
scf_convergence       8
thresh                14
jobtype               opt
scf_guess             read
scf_algorithm         diis
max_scf_cycles        100
geom_opt_max_cycles   300
$end

