$molecule
0 2
C        1.6832658595    0.3176809945   -0.2489805359
C        0.2092045660   -1.7563746958    0.7023794991
C       -0.9904235340   -1.2067822155    0.7570690417
C       -1.4241075891    0.1123851253    0.2841811106
C       -0.7043447129    1.1738923450   -0.1303636648
N        0.6891936116    1.4490744089   -0.1097457494
H        2.2777721939   -0.2950180758    0.4015778029
H        0.6362327980   -2.7083892239    0.9935748133
H       -1.7984369780   -1.8125438279    1.1907189923
H       -2.5034812265    0.2487689697    0.2663900350
H       -1.2535686847    2.0559533563   -0.4596677189
C        1.4921169034    1.0196452689   -1.3082449186
H        1.6799312641    1.3804090251   -2.3056420918
$end

$rem
method                b3lyp
basis                 6-31+g(d,p)
unrestricted          true
symmetry              off
sym_ignore            true
incdft                false
incfock               0
scf_convergence       8
thresh                14
jobtype               freq
scf_guess             read
scf_algorithm         diis
max_scf_cycles        100
$end

