$molecule
0 2
C        1.6784805107    0.2140532648   -0.3008949031
C        0.1878420000   -1.6661265785    0.8108548320
C       -1.0540769106   -1.2170487720    0.7434216533
C       -1.4723255795    0.1088044655    0.2875384414
C       -0.6951710806    1.1405477703   -0.1017315933
N        0.7158140241    1.3471005425   -0.0612779140
H        2.4857990085   -0.2431099919    0.2392216547
H        0.6637848717   -2.5844163971    1.1403042137
H       -1.8650231318   -1.9004598004    1.0186716501
H       -2.5470783538    0.2789986927    0.2677175729
H       -1.1826066173    2.0573107811   -0.4358191607
C        1.3975174313    0.9659845406   -1.3326389413
H        1.6803982983    1.4770629373   -2.2421208902
$end

$rem
method                b3lyp
basis                 6-31g(d)
unrestricted          true
symmetry              off
sym_ignore            true
incdft                false
incfock               0
scf_convergence       8
thresh                14
jobtype               freq
scf_guess             read
scf_algorithm         diis
max_scf_cycles        100
$end

