$molecule
0 2
C        1.6726356852    0.4024927058   -0.1440338710
C        1.1245045201   -0.8304792601   -0.2699356783
C       -0.3168396244   -1.0692243879   -0.1080810380
C       -1.1671341584    0.3266186545    0.0492677605
C       -0.3448684868    1.5300885188   -0.1576363527
N        0.9443683625    1.5916159497   -0.1508227081
H        2.7499928199    0.5354444618   -0.1758755344
H        1.7555415812   -1.6847127132   -0.4998888114
H       -0.7562232948   -1.8992276316   -0.6630271271
H       -2.1793306105    0.3871683945   -0.3547500944
H       -0.8833524660    2.4483642498   -0.3998791306
C       -0.9522144492   -0.6328955002    1.1322498293
H       -1.6928216537   -1.1306921735    1.7457255990
$end

$rem
method                b3lyp
basis                 6-31+g(d,p)
unrestricted          true
symmetry              off
sym_ignore            true
incdft                false
incfock               0
scf_convergence       8
thresh                14
jobtype               opt
scf_guess             read
scf_algorithm         diis
max_scf_cycles        100
geom_opt_max_cycles   300
$end

