$molecule
0 2
C        1.2914289312    0.2883554586    0.2188096798
C        0.6185732303   -1.0280392335   -0.1884225647
C       -0.7075913348   -0.6187080615   -0.8026821528
C       -1.0712310400    0.1891352462    0.3870723877
C       -0.5161383866    1.2053608974   -0.6012146624
N        0.8031423456    1.4157166063   -0.5176431976
H        2.3308991287    0.2818804433    0.5259278281
H        1.1653707702   -1.9495745496   -0.3491213477
H       -1.2781603239   -1.0008219704   -1.6388113869
H       -2.0535200342    0.3118473936    0.8360054822
H       -1.1589882235    1.8273670822   -1.2135102705
C        0.2102770841   -0.3247908524    1.1059317368
H        0.3175117754   -0.6279934520    2.1412087204
$end

$rem
method                b3lyp
basis                 6-31+g(d,p)
unrestricted          true
symmetry              off
sym_ignore            true
incdft                false
incfock               0
scf_convergence       8
thresh                14
jobtype               sp
scf_guess             core
scf_guess_mix         5
scf_algorithm         diis
max_scf_cycles        100
$end

