$molecule
0 2
C        1.3123784607    0.3056363587    0.2477164281
C        0.6118983208   -0.9997173330   -0.1765875210
C       -0.6818624658   -0.4706159523   -0.8476368617
C       -1.0814637460    0.1896641419    0.4443562748
C       -0.5215585606    1.0571232286   -0.6996129707
N        0.8252320260    1.4202971889   -0.4713984287
H        2.3476170808    0.2963434849    0.5677401874
H        1.1305173416   -1.9331386426   -0.3617493947
H       -1.2832341542   -0.9489927669   -1.6116467112
H       -2.0598661655    0.3296655997    0.8889198490
H       -1.1656267109    1.7402466902   -1.2405097431
C        0.2119917484   -0.3389683024    1.1157089676
H        0.3539768249   -0.6475436955    2.1446999240
$end

$rem
method                b3lyp
basis                 6-31+g(d,p)
unrestricted          true
symmetry              off
sym_ignore            true
incdft                false
incfock               0
scf_convergence       8
thresh                14
jobtype               sp
scf_guess             core
scf_guess_mix         5
scf_algorithm         diis
max_scf_cycles        100
$end

