$molecule
0 2
C        1.3119832026    0.3024639842    0.2418450666
C        0.6067813895   -1.0007324541   -0.1827277502
C       -0.6879962090   -0.4652710104   -0.8442673523
C       -1.0782594737    0.1910344549    0.4506508298
C       -0.5191779217    1.0594042307   -0.6924931429
N        0.8290508102    1.4231658196   -0.4713972156
H        2.3485696173    0.2892655803    0.5603271077
H        1.1221951757   -1.9351789616   -0.3745474573
H       -1.2950975532   -0.9364177124   -1.6091722852
H       -2.0524462796    0.3360300536    0.9040256583
H       -1.1654104444    1.7420801816   -1.2331782202
C        0.2167898071   -0.3445443101    1.1121710373
H        0.3630178796   -0.6612998559    2.1387637239
****
C        1.5352298992    0.3455464336   -0.6174311162
C        1.1739543799   -0.9592461281   -0.3358050316
C       -0.0768555452   -1.4427270681    0.1897675599
C       -1.3056556612    0.7329186614    0.4109571775
C       -0.3749832816    1.6478911158   -0.0425738178
N        0.8920149141    1.5303482886   -0.5070899948
H        2.5466547899    0.4651951944   -1.0123050314
H        1.9324592649   -1.7113823214   -0.5388658439
H       -0.1454627912   -2.5190147030    0.3350271403
H       -2.2596542499    1.1495051515    0.7253365236
H       -0.7106204863    2.6872230759   -0.0313349639
C       -1.1696661591   -0.6977023088    0.5190041393
H       -2.0374150735   -1.2285553917    0.9053132591
$end

$rem
method                b3lyp
basis                 6-31g(d)
unrestricted          true
symmetry              off
sym_ignore            true
incdft                false
incfock               0
scf_convergence       8
thresh                14
jobtype               fsm
scf_guess             core
scf_guess_mix         5
scf_algorithm         diis
max_scf_cycles        100
fsm_nnode             21
fsm_ngrad             6
fsm_mode              2
fsm_opt_mode          2
$end

