$molecule
0 2
C        1.5348642784    0.3456500851   -0.6179040600
C        1.1737607234   -0.9591985572   -0.3362297236
C       -0.0771302035   -1.4426645606    0.1892855113
C       -1.3053709349    0.7328232315    0.4113220772
C       -0.3748333053    1.6477135252   -0.0419390194
N        0.8918951021    1.5302174533   -0.5068801945
H        2.5464116681    0.4648680033   -1.0124057567
H        1.9328936696   -1.7109568903   -0.5384422558
H       -0.1450774496   -2.5187971166    0.3362074361
H       -2.2591542260    1.1498718485    0.7256742459
H       -0.7106593325    2.6868701717   -0.0314869532
C       -1.1699021564   -0.6977770935    0.5183381078
H       -2.0376978333   -1.2286201003    0.9044605850
$end

$rem
method                b3lyp
basis                 6-31g(d)
unrestricted          true
symmetry              off
sym_ignore            true
incdft                false
incfock               0
scf_convergence       8
thresh                14
jobtype               opt
scf_guess             core
scf_guess_mix         5
scf_algorithm         diis
max_scf_cycles        100
geom_opt_max_cycles   300
$end

