$molecule
0 2
C        1.4341324215    0.3666919357   -0.0324287985
C        0.6929018324   -0.9209519475   -0.1798333392
C       -0.6534666138   -0.7332082286   -0.7945973504
C       -1.0671410255    0.2842143713    0.3618375996
C       -0.4659660264    1.3184150133   -0.5331968688
N        0.8488615327    1.4677461397   -0.4942864520
H        2.4920377616    0.3695384636    0.1993523407
H        1.3292338418   -1.7853267767   -0.3864786346
H       -1.1914090100   -1.5899601504   -1.2034914773
H       -2.0411975183    0.5635887281    0.7723751237
H       -1.0887303428    2.0669522732   -1.0055608218
C       -0.0298811269   -0.4414399998    1.1505214702
H       -0.3078018038   -0.9965248137    2.0493374606
$end

$rem
method                b3lyp
basis                 6-31g(d)
unrestricted          true
symmetry              off
sym_ignore            true
incdft                false
incfock               0
scf_convergence       8
thresh                14
jobtype               sp
scf_guess             core
scf_guess_mix         5
scf_algorithm         diis
max_scf_cycles        100
$end

