$molecule
0 2
C        1.6803072342    0.3945463122   -0.1790683170
C        1.1263490106   -0.8348011062   -0.2673907334
C       -0.3164220115   -1.0621630924   -0.0827497347
C       -1.1559921890    0.3283053733    0.0476775594
C       -0.3270390790    1.5323805493   -0.1490913060
N        0.9598779594    1.5896965768   -0.1665298860
H        2.7571846633    0.5230636471   -0.2509313291
H        1.7481625718   -1.6980040683   -0.4919427787
H       -0.7580703293   -1.9017057218   -0.6227678223
H       -2.1629936635    0.3924217203   -0.3692168243
H       -0.8669858804    2.4604237218   -0.3527428824
C       -0.9581665579   -0.6145042569    1.1513137541
H       -1.7262117293   -1.1096596548    1.7334402998
****
C        1.1817511755    0.3159810802    0.4224808681
C        0.6606714180   -1.0909876685   -0.1224658165
C       -0.5671542514   -0.9251514321   -0.8882113850
C       -1.0851723069    0.1541927299    0.0598863570
C       -0.4654526888    1.4493570458   -0.4513033676
N        0.8066401300    1.5099103282   -0.2928003542
H        2.1701117512    0.2891431988    0.8698527010
H        1.3602633717   -1.9209098826   -0.1336211866
H       -0.8186152028   -1.1403540626   -1.9241126799
H       -2.1444925596    0.1671201826    0.3255108814
H       -1.0077872990    2.2013625395   -1.0222880467
C        0.0158181051   -0.3478210768    1.0624227087
H       -0.1065816429   -0.6618429823    2.0946493205
$end

$rem
method                b3lyp
basis                 6-31g(d)
unrestricted          true
symmetry              off
sym_ignore            true
incdft                false
incfock               0
scf_convergence       8
thresh                14
jobtype               fsm
scf_guess             core
scf_guess_mix         5
scf_algorithm         diis
max_scf_cycles        100
fsm_nnode             21
fsm_ngrad             6
fsm_mode              2
fsm_opt_mode          2
$end

