$molecule
0 2
C        1.3711856768    0.3868602538    0.2355029499
C        0.8002638969   -0.9477703272   -0.1724502981
C       -0.4941735811   -0.9013843347   -0.8609604505
C       -1.0666074416    0.2769533464   -0.0362311649
C       -0.4034644894    1.5669372487   -0.3780924200
N        0.8795386605    1.5940359911   -0.1992350254
H        2.4038512620    0.3831752873    0.5840751396
H        1.5155450733   -1.7656944508   -0.2283480979
H       -1.0360638277   -1.8251249241   -1.0486958219
H       -2.1610363870    0.3270009432    0.0389772020
H       -0.9334835374    2.4530820122   -0.7141074034
C       -0.2122962373   -0.5028562398    0.9852215075
H       -0.7241712676   -1.0855783533    1.7850490099
$end

$rem
method                b3lyp
basis                 6-31g(d)
unrestricted          true
symmetry              off
sym_ignore            true
incdft                false
incfock               0
scf_convergence       8
thresh                14
jobtype               sp
scf_guess             core
scf_guess_mix         5
scf_algorithm         diis
max_scf_cycles        100
$end

