$molecule
0 2
C        1.3066171171    0.2495066821    0.3273016824
C        0.5919526013   -1.0059755000   -0.2085288754
C       -0.6525449021   -0.3977588644   -0.9061328284
C       -1.0962696339    0.1955650325    0.4034201747
C       -0.4573765960    1.1126172798   -0.6574421102
N        0.8866973603    1.4200044116   -0.3448937814
H        2.3249194816    0.1888323168    0.6924864910
H        1.0932847117   -1.9418397766   -0.4254054185
H       -1.2297395727   -0.8126884696   -1.7241854420
H       -2.0908682386    0.3380551269    0.8087517799
H       -1.0554099860    1.8480605835   -1.1823199196
C        0.1481348486   -0.4109449737    1.1013324696
H        0.2306028086   -0.7834338490    2.1156157780
$end

$rem
method                b3lyp
basis                 6-31+g(d,p)
unrestricted          true
symmetry              off
sym_ignore            true
incdft                false
incfock               0
scf_convergence       6
thresh                14
jobtype               sp
scf_guess             read
scf_algorithm         diis
max_scf_cycles        100
stability_analysis    true
max_cis_cycles        100
cis_n_roots           4
$end

