$molecule
0 2
C        1.2472491268    0.2394747160    0.2457807437
C        0.5667876203   -1.1298321881   -0.2132234672
C       -0.7465851239   -0.8839705917   -0.7937796670
C       -1.0529889157    0.2208481240    0.2154257019
C       -0.4345983375    1.4782624648   -0.3837943237
N        0.8482346572    1.4590569046   -0.4110176070
H        2.2863941218    0.1492063717    0.5454966224
H        1.2042933028   -2.0016523227   -0.3222701238
H       -1.1571424385   -1.0756006705   -1.7824910181
H       -2.0600331140    0.2974793718    0.6313898476
H       -1.0059870640    2.2662697034   -0.8718905545
C        0.1477540711   -0.3538931714    1.0501095734
H        0.1566220930   -0.6656487114    2.0902642725
****
C        1.3036771046    0.2521507022    0.3283889540
C        0.5915042904   -1.0050810453   -0.2091711897
C       -0.6520526666   -0.3972929790   -0.9053245182
C       -1.0961669684    0.1941507747    0.4035704523
C       -0.4552002123    1.1111440604   -0.6552892467
N        0.8876513085    1.4247890594   -0.3429184567
H        2.3210492714    0.1923477668    0.6991771963
H        1.0935991318   -1.9407385553   -0.4282503835
H       -1.2293260194   -0.8063382412   -1.7269419756
H       -2.0894486930    0.3392599905    0.8133390363
H       -1.0546123746    1.8409509881   -1.1882437686
C        0.1479545765   -0.4131702463    1.0995957996
H        0.2313712508   -0.7921722750    2.1120681007
$end

$rem
method                b3lyp
basis                 6-31g(d)
unrestricted          true
symmetry              off
sym_ignore            true
incdft                false
incfock               0
scf_convergence       8
thresh                14
jobtype               fsm
scf_guess             core
scf_guess_mix         5
scf_algorithm         diis
max_scf_cycles        100
fsm_nnode             21
fsm_ngrad             6
fsm_mode              2
fsm_opt_mode          2
$end

