$molecule
0 2
C        1.2897813078    0.2365843081    0.3046608651
C        0.6022800866   -1.0313113809   -0.2161487671
C       -0.6814688622   -0.5450019142   -0.8645725162
C       -1.0801803236    0.1987930322    0.3551945278
C       -0.4500219536    1.2564655280   -0.5404939339
N        0.8689881588    1.4208697518   -0.3825182323
H        2.3124881155    0.1797725177    0.6592332121
H        1.1302823028   -1.9576851706   -0.4085986238
H       -1.2210848619   -0.8571364061   -1.7489475600
H       -2.0791973871    0.3240444017    0.7647524653
H       -1.0447351872    1.9343674916   -1.1419582566
C        0.1502496127   -0.3969094926    1.0990749717
H        0.1986192025   -0.7667156385    2.1170324934
$end

$rem
method                b3lyp
basis                 6-31+g(d,p)
unrestricted          true
symmetry              off
sym_ignore            true
incdft                false
incfock               0
scf_convergence       8
thresh                14
jobtype               sp
scf_guess             read
scf_algorithm         diis
max_scf_cycles        100
$end

