$molecule
0 2
C        1.2894896980    0.2424476249    0.3120398859
C        0.6004902624   -1.0268513121   -0.2177277144
C       -0.6791641257   -0.5115031047   -0.8718189525
C       -1.0809978684    0.1979155161    0.3666358470
C       -0.4505210357    1.2252964157   -0.5712221666
N        0.8728273475    1.4200164030   -0.3769571657
H        2.3105744271    0.1825501350    0.6730604650
H        1.1318451339   -1.9506289610   -0.4153674465
H       -1.2316425760   -0.8640758377   -1.7336705612
H       -2.0816383921    0.3274994783    0.7701195549
H       -1.0387841572    1.9320868201   -1.1465349762
C        0.1473107141   -0.4026827178    1.0954940539
H        0.2062107832   -0.7759334316    2.1126598221
$end

$rem
method                b3lyp
basis                 6-31g(d)
unrestricted          true
symmetry              off
sym_ignore            true
incdft                false
incfock               0
scf_convergence       8
thresh                14
jobtype               sp
scf_guess             core
scf_guess_mix         5
scf_algorithm         diis
max_scf_cycles        100
$end

