$molecule
0 2
C        1.2597448084    0.3321969575    0.1068559308
C        0.6489960655   -1.0675865977   -0.1936357648
C       -0.7132319978   -0.9451369054   -0.7330007774
C       -1.0391926723    0.2469393086    0.1796590851
C       -0.4931654901    1.4551200509   -0.5688286865
N        0.7869585746    1.4734679724   -0.6470928761
H        2.3049806421    0.3294328027    0.3945910797
H        1.2971764082   -1.9370483221   -0.2233693693
H       -1.3824965898   -1.7736001156   -0.9325051877
H       -2.0343718091    0.3223283394    0.6168036708
H       -1.1096161737    2.1736055418   -1.1056649509
C        0.2068598179   -0.1957771508    1.0222708238
H        0.2673584161   -0.4139418817    2.0839170225
$end

$rem
method                b3lyp
basis                 6-31+g(d,p)
unrestricted          true
symmetry              off
sym_ignore            true
incdft                false
incfock               0
scf_convergence       6
thresh                14
jobtype               sp
scf_guess             read
scf_algorithm         diis
max_scf_cycles        100
stability_analysis    true
max_cis_cycles        100
cis_n_roots           4
$end

