$molecule
0 2
C        1.5317691294    0.3875039343   -0.4399566548
C        0.8337690146   -0.8076834498    0.0900348634
C       -0.6165411829   -1.0368339542   -0.3009473845
C       -1.1067408798    0.3381790563    0.1309002093
C       -0.4241352321    1.5188815620   -0.4507590603
N        0.8829745997    1.5199230081   -0.7107587759
H        2.6067161170    0.3678267039   -0.6028350782
H        1.4364525296   -1.6986929617    0.2546796319
H       -1.1326541347   -1.8966532769   -0.7027413773
H       -2.1710226880    0.4345942093    0.3358014699
H       -0.9905233400    2.4134509508   -0.6984913175
C       -0.3202338580   -0.5756028613    1.0547054956
H       -0.5298300744   -0.9648929203    2.0403679785
$end

$rem
method                b3lyp
basis                 6-31+g(d,p)
unrestricted          true
symmetry              off
sym_ignore            true
incdft                false
incfock               0
scf_convergence       8
thresh                14
jobtype               sp
scf_guess             read
scf_algorithm         diis
max_scf_cycles        100
scf_final_print       1
$end

