$molecule
0 2
C        1.4682868321    0.4430805743   -0.3533865526
C        0.8844022873   -0.7856752825    0.2151865042
C       -0.7449520357   -0.8069154899    0.1733851284
C       -1.3123418507    0.4543349172   -0.3313042279
C       -0.5485538449    1.5422439192   -0.5750737492
N        0.8458281931    1.5355327297   -0.6342302106
H        2.5297900783    0.3980229984   -0.6089834875
H        1.4422790578   -1.6995033966    0.0014279069
H       -1.2580007387   -1.7281406933   -0.1086990447
H       -2.3831085016    0.4873436658   -0.5171458804
H       -1.0036800811    2.4809373004   -0.8802618728
C        0.0353959252   -0.7960443043    1.4088119362
H        0.0446546791   -1.5252169379    2.2102735501
****
C        1.3179286975    0.3254003044    0.1677545743
C        0.6049106088   -1.0115354423   -0.1160610501
C       -0.7149839448   -0.5389001994   -0.7750849349
C       -1.0624789205    0.2277356379    0.4707455087
C       -0.5490614836    0.9932149374   -0.7638775987
N        0.8041042710    1.3783649014   -0.6235733635
H        2.3652096092    0.3429859612    0.4487303436
H        1.1187408091   -1.9576460446   -0.2441067054
H       -1.3464861185   -1.0766388259   -1.4733907095
H       -2.0209629071    0.4087076432    0.9441742701
H       -1.2177217093    1.6242976103   -1.3389779888
C        0.2582126761   -0.2446218411    1.1297599739
H        0.4425884124   -0.4713646426    2.1739076807
$end

$rem
method                b3lyp
basis                 6-31g(d)
unrestricted          true
symmetry              off
sym_ignore            true
incdft                false
incfock               0
scf_convergence       8
thresh                14
jobtype               fsm
scf_guess             core
scf_guess_mix         5
scf_algorithm         diis
max_scf_cycles        100
fsm_nnode             21
fsm_ngrad             6
fsm_mode              2
fsm_opt_mode          2
$end

