$molecule
0 2
C        1.3800397214    0.3727486308   -0.1465679716
C        0.7318083402   -0.9795902813   -0.2369655050
C       -0.7164156319   -0.9839370970   -0.6042998501
C       -1.0530894865    0.3601685638    0.1287169469
C       -0.4630765339    1.5183429408   -0.5759832129
N        0.8397152218    1.5143907297   -0.6650662999
H        2.3922666876    0.3990073250    0.2462070279
H        1.3337378961   -1.8802747579   -0.1738155364
H       -1.2732449321   -1.8815051222   -0.3342375579
H       -2.0559600881    0.4600457314    0.5398825123
H       -1.0551812423    2.3052324041   -1.0349266661
C        0.0241050553   -0.3698057442    0.9360522726
H       -0.1177192501   -0.8287515653    1.9129614748
$end

$rem
method                b3lyp
basis                 6-31+g(d,p)
unrestricted          true
symmetry              off
sym_ignore            true
incdft                false
incfock               0
scf_convergence       8
thresh                14
jobtype               ts
scf_guess             read
scf_algorithm         diis
max_scf_cycles        100
geom_opt_max_cycles   500
geom_opt_dmax         100
geom_opt_tol_gradient 10
geom_opt_hessian      read
$end

