$molecule
0 2
C        1.1275036404    0.1918961657    0.4734165392
C        0.8557349672   -0.9780042488   -0.4865106154
C       -0.4691580315   -0.9890670536   -0.7199582506
C       -1.0737200572    0.1679043627    0.1038091570
C       -0.4313808012    1.4532337658   -0.4540703786
N        0.8314113192    1.4878430686   -0.2628465899
H        2.1022023700    0.2174366231    0.9557406162
H        1.6130165960   -1.6353953739   -0.8983655343
H       -1.0316788945   -1.6451399926   -1.3746742822
H       -2.1539214513    0.1642681282    0.2449304696
H       -0.9673872875    2.2451143083   -0.9725999562
C       -0.1362539921    0.0377689185    1.3094707556
H       -0.2663683774   -0.7178586718    2.0816580698
$end

$rem
method                b3lyp
basis                 6-31+g(d,p)
unrestricted          true
symmetry              off
sym_ignore            true
incdft                false
incfock               0
scf_convergence       8
thresh                14
jobtype               sp
scf_guess             read
scf_algorithm         diis
max_scf_cycles        100
scf_final_print       1
$end

