$molecule
0 2
C        1.1257323313    0.1922337865    0.4746690282
C        0.8532525452   -0.9767880533   -0.4848430126
C       -0.4702377696   -0.9912679892   -0.7120302100
C       -1.0731964535    0.1687161117    0.1057264456
C       -0.4272635210    1.4517249684   -0.4558123407
N        0.8339223034    1.4888177379   -0.2651137969
H        2.1011704198    0.2168050138    0.9582537018
H        1.6120288300   -1.6270792997   -0.9059998495
H       -1.0344162253   -1.6493470802   -1.3639010419
H       -2.1541597964    0.1675314014    0.2463372013
H       -0.9627146293    2.2393822215   -0.9832903073
C       -0.1377420172    0.0440018324    1.3128677990
H       -0.2663760177   -0.7247306512    2.0731363830
****
C        1.1893717253    0.3429683502    0.3776237553
C        0.6801293704   -1.0757227126   -0.1480695422
C       -0.5790030744   -0.9377586450   -0.8669931397
C       -1.0854326285    0.1292982268    0.1010221989
C       -0.5151217370    1.4382335867   -0.4322212085
N        0.7602950954    1.5281228409   -0.3216395131
H        2.1943357315    0.3386675018    0.7872184282
H        1.3973493991   -1.8896592610   -0.1860928727
H       -0.8643564917   -1.1587859789   -1.8928220475
H       -2.1340046667    0.1181233146    0.4064295023
H       -1.0955357881    2.1774537189   -0.9820994394
C        0.0639465344   -0.3472336994    1.0608435761
H       -0.0119734699   -0.6637072429    2.0968003022
$end

$rem
method                b3lyp
basis                 6-31g(d)
unrestricted          true
symmetry              off
sym_ignore            true
incdft                false
incfock               0
scf_convergence       8
thresh                14
jobtype               fsm
scf_guess             core
scf_guess_mix         5
scf_algorithm         diis
max_scf_cycles        100
fsm_nnode             21
fsm_ngrad             6
fsm_mode              2
fsm_opt_mode          2
$end

