$molecule
0 2
C        1.2458044807    0.2522059688    0.2545122815
C        0.5763958154   -1.1271830118   -0.2009342833
C       -0.7352018094   -0.8930774235   -0.7888143033
C       -1.0552696931    0.2154987193    0.2121512830
C       -0.4469462702    1.4697737773   -0.4020261845
N        0.8380542032    1.4588163235   -0.4189275106
H        2.2842794435    0.1717543832    0.5556121722
H        1.2221148521   -1.9923640268   -0.3047910022
H       -1.1449988548   -1.0966569778   -1.7747884044
H       -2.0634897396    0.2895127586    0.6238250247
H       -1.0208474823    2.2406054957   -0.9115746688
C        0.1465718999   -0.3415270865    1.0572830721
H        0.1535331544   -0.6473589005    2.0984725241
$end

$rem
method                b3lyp
basis                 6-31+g(d,p)
unrestricted          true
symmetry              off
sym_ignore            true
incdft                false
incfock               0
scf_convergence       6
thresh                14
jobtype               sp
scf_guess             read
scf_algorithm         diis
max_scf_cycles        100
stability_analysis    true
max_cis_cycles        100
cis_n_roots           4
$end

