$molecule
0 2
C        1.3029313873    0.2630868319    0.3312564017
C        0.6012637494   -1.0027948518   -0.1972134995
C       -0.6449047225   -0.4108752160   -0.9057058722
C       -1.0997528622    0.1899098233    0.3965876043
C       -0.4634224745    1.1032149007   -0.6690041526
N        0.8766210095    1.4242998094   -0.3528808537
H        2.3199620677    0.2138916240    0.7016884426
H        1.1112330884   -1.9363311516   -0.4037339323
H       -1.2148451818   -0.8374420408   -1.7228637233
H       -2.0974041454    0.3275362999    0.7960548094
H       -1.0649896381    1.8292235932   -1.2029024032
C        0.1462920227   -0.4003151561    1.1054444449
H        0.2270156996   -0.7634044661    2.1232727340
$end

$rem
method                b3lyp
basis                 6-31+g(d,p)
unrestricted          true
symmetry              off
sym_ignore            true
incdft                false
incfock               0
scf_convergence       8
thresh                14
jobtype               sp
scf_guess             core
scf_guess_mix         5
scf_algorithm         diis
max_scf_cycles        100
$end

