$molecule
0 2
C        1.2863706972    0.2499780317    0.3085573827
C        0.6118606183   -1.0280428952   -0.2044832089
C       -0.6728283958   -0.5580226344   -0.8629919161
C       -1.0834210191    0.1927783471    0.3485165640
C       -0.4579181605    1.2479576470   -0.5533558311
N        0.8589669430    1.4247191284   -0.3907885441
H        2.3078459469    0.2047243326    0.6683105829
H        1.1483682638   -1.9516392569   -0.3864807331
H       -1.2058037188   -0.8822000330   -1.7470576627
H       -2.0853299112    0.3131586124    0.7524359212
H       -1.0554546829    1.9156679427   -1.1633711254
C        0.1484146538   -0.3862046688    1.1031097035
H        0.1951486813   -0.7467913205    2.1244455634
$end

$rem
method                b3lyp
basis                 6-31+g(d,p)
unrestricted          true
symmetry              off
sym_ignore            true
incdft                false
incfock               0
scf_convergence       8
thresh                14
jobtype               sp
scf_guess             core
scf_guess_mix         5
scf_algorithm         diis
max_scf_cycles        100
$end

