$molecule
0 2
C        1.2441508653    0.2526947286    0.2496762401
C        0.5760927663   -1.1277464079   -0.2002974515
C       -0.7354174521   -0.8968731126   -0.7898711529
C       -1.0555134800    0.2138824937    0.2083840400
C       -0.4451867434    1.4714614176   -0.3981744832
N        0.8379687110    1.4626302129   -0.4195799834
H        2.2828752363    0.1726278354    0.5536640370
H        1.2222758934   -1.9943866245   -0.2988227385
H       -1.1395506244   -1.1004765774   -1.7787841263
H       -2.0650569088    0.2854232602    0.6192402681
H       -1.0208768006    2.2504728010   -0.8954714745
C        0.1461590139   -0.3436761721    1.0535232001
H        0.1520795229   -0.6460338548    2.0965136255
****
C        1.3000490247    0.2656862792    0.3319592699
C        0.6011396499   -1.0017464576   -0.1982291172
C       -0.6444846631   -0.4102728332   -0.9047128521
C       -1.0998221039    0.1881053963    0.3971625858
C       -0.4614560444    1.1014635558   -0.6671965437
N        0.8772514255    1.4292482467   -0.3510239300
H        2.3159885428    0.2181043647    0.7084321334
H        1.1108707805   -1.9357515725   -0.4063614920
H       -1.2134722511   -0.8315509733   -1.7260260721
H       -2.0959797380    0.3295467555    0.8011051577
H       -1.0646870906    1.8219686317   -1.2084678514
C        0.1462459873   -0.4025340993    1.1036590233
H        0.2283564802   -0.7722672938    2.1196996885
$end

$rem
method                b3lyp
basis                 6-31g(d)
unrestricted          true
symmetry              off
sym_ignore            true
incdft                false
incfock               0
scf_convergence       8
thresh                14
jobtype               fsm
scf_guess             core
scf_guess_mix         5
scf_algorithm         diis
max_scf_cycles        100
fsm_nnode             21
fsm_ngrad             6
fsm_mode              2
fsm_opt_mode          2
$end

