$molecule
0 2
C        1.2996058262    0.2660350258    0.3331908980
C        0.6002727092   -1.0020274838   -0.1978148853
C       -0.6447715862   -0.4101298348   -0.9049914339
C       -1.0991204165    0.1891478011    0.3967577251
C       -0.4610978696    1.1018594116   -0.6667973994
N        0.8776952333    1.4291047430   -0.3511848725
H        2.3162468547    0.2171485101    0.7075669742
H        1.1132013688   -1.9340755772   -0.4069191068
H       -1.2159570787   -0.8319764301   -1.7242774415
H       -2.0959177514    0.3279814911    0.8001986054
H       -1.0637964006    1.8218941947   -1.2092389750
C        0.1467154053   -0.4022628063    1.1038276730
H        0.2269237054   -0.7726990451    2.1196822387
$end

$rem
method                b3lyp
basis                 6-31g(d)
unrestricted          true
symmetry              off
sym_ignore            true
incdft                false
incfock               0
scf_convergence       8
thresh                14
jobtype               opt
scf_guess             core
scf_guess_mix         5
scf_algorithm         diis
max_scf_cycles        100
geom_opt_max_cycles   300
$end

