$molecule
0 2
C        1.2862847909    0.2552206373    0.3161956429
C        0.6080695616   -1.0238043560   -0.2055948518
C       -0.6708830403   -0.5240082434   -0.8720136088
C       -1.0838340397    0.1926730811    0.3581692647
C       -0.4607105352    1.2136015012   -0.5850682925
N        0.8627246488    1.4247880879   -0.3851873215
H        2.3068565006    0.2088227364    0.6798802270
H        1.1491799612   -1.9445442561   -0.3910674941
H       -1.2145995802   -0.8929637967   -1.7327315279
H       -2.0866761435    0.3155356594    0.7590368338
H       -1.0471376781    1.9185772125   -1.1640851843
C        0.1446943563   -0.3924549750    1.0991307466
H        0.2022511139   -0.7553600558    2.1201822621
$end

$rem
method                b3lyp
basis                 6-31g(d)
unrestricted          true
symmetry              off
sym_ignore            true
incdft                false
incfock               0
scf_convergence       8
thresh                14
jobtype               freq
scf_guess             read
scf_algorithm         diis
max_scf_cycles        100
$end

