$molecule
0 2
C        1.1893926159    0.3430764776    0.3777913106
C        0.6800432118   -1.0758653121   -0.1480580577
C       -0.5789747398   -0.9376362397   -0.8669185161
C       -1.0854324972    0.1294817327    0.1011401553
C       -0.5151694572    1.4384556318   -0.4320088713
N        0.7601117139    1.5284140858   -0.3209985905
H        2.1945874409    0.3386340181    0.7868700052
H        1.3975352713   -1.8895521398   -0.1863027082
H       -0.8645810205   -1.1589580651   -1.8926131035
H       -2.1340940856    0.1182411963    0.4063361366
H       -1.0953308714    2.1771220573   -0.9829099466
C        0.0639774128   -0.3473223776    1.0609130531
H       -0.0120649950   -0.6640910652    2.0967591331
$end

$rem
method                b3lyp
basis                 6-31g(d)
unrestricted          true
symmetry              off
sym_ignore            true
incdft                false
incfock               0
scf_convergence       8
thresh                14
jobtype               opt
scf_guess             core
scf_guess_mix         5
scf_algorithm         diis
max_scf_cycles        100
geom_opt_max_cycles   300
$end

