$molecule
0 2
C        1.1602549289    0.2751435525    0.4167785003
C        0.7926268258   -0.9790313375   -0.3684205276
C       -0.5283024739   -0.9545775097   -0.8043020789
C       -1.0821327649    0.1552569829    0.0948258623
C       -0.4633833162    1.4620000832   -0.4310785334
N        0.8068638893    1.5207058157   -0.2749970422
H        2.1428852989    0.2758897076    0.8821012617
H        1.5220346599   -1.7694709435   -0.5320773688
H       -0.9978626858   -1.4940317235   -1.6182215931
H       -2.1497157447    0.1461487722    0.3167975485
H       -1.0189322657    2.2248608254   -0.9733156393
C       -0.0459351059   -0.1523342175    1.1867751672
H       -0.1475986186   -0.7317119182    2.0932139702
$end

$rem
method                b3lyp
basis                 6-31g(d)
unrestricted          true
symmetry              off
sym_ignore            true
incdft                false
incfock               0
scf_convergence       8
thresh                14
jobtype               freq
scf_guess             read
scf_algorithm         diis
max_scf_cycles        100
$end

