$molecule
0 2
C        1.1657286851    0.2823325485    0.4109159667
C        0.7820168291   -0.9898385484   -0.3434097259
C       -0.5225797753   -0.9189052605   -0.8518903628
C       -1.0786859918    0.1537348898    0.0824779620
C       -0.4735800285    1.4676314806   -0.4185685095
N        0.7994688986    1.5316783232   -0.2711771561
H        2.1478487845    0.2795429957    0.8771361095
H        1.5049176420   -1.7888230565   -0.4900001446
H       -1.0054035143   -1.4996246249   -1.6262397874
H       -2.1442177820    0.1344459790    0.3128756274
H       -1.0282359967    2.2313811441   -0.9614032227
C       -0.0262121504   -0.2091908390    1.1538323739
H       -0.1302629731   -0.6955169421    2.1135303963
$end

$rem
method                b3lyp
basis                 6-31+g(d,p)
unrestricted          true
symmetry              off
sym_ignore            true
incdft                false
incfock               0
scf_convergence       8
thresh                14
jobtype               freq
scf_guess             read
scf_algorithm         diis
max_scf_cycles        100
$end

