$molecule
0 2
C        1.4720425503    0.6961620956   -0.5166035396
C        0.3612049871   -0.9199228795    0.0717408197
C       -1.1344368389   -0.9238956779    0.0123397311
C       -1.5989322835    0.2920952617    0.5090768260
C       -0.5310248466    1.1117025647    0.8714011669
N        0.6994751629    0.4352227725    0.6820187780
H        2.0455484707    1.5959178949   -0.7100002244
H        0.7928738265   -1.7554119623    0.6410109666
H       -1.7355710951   -1.7717143295   -0.2897963327
H       -2.6430871703    0.5669634776    0.6161188383
H       -0.5466287652    2.1296155930    1.2371061637
C        1.2289315657   -0.4781389466   -1.1176450996
H        1.5896044365   -0.9785958644   -2.0067680935
$end

$rem
method                b3lyp
basis                 6-31+g(d,p)
unrestricted          true
symmetry              off
sym_ignore            true
incdft                false
incfock               0
scf_convergence       8
thresh                14
jobtype               sp
scf_guess             read
scf_algorithm         diis
max_scf_cycles        100
scf_final_print       1
$end

