$molecule
0 2
C        1.5326088813    0.5111423152   -0.5536540768
C       -0.1265399189   -1.1398496877    0.2295123564
C       -1.4445914619   -1.0738595540    0.6044091356
C       -1.7723202020    0.3112957003    0.7811525652
C       -0.6368048121    1.0386415486    0.5173031815
N        0.3749157508    0.1496884889    0.1735713919
H        2.0004529056    1.4492831627   -0.2343448241
H        0.5225628857   -1.9765238891    0.0230183060
H       -2.1046885642   -1.9201502472    0.7457312651
H       -2.7334800976    0.7168542150    1.0636814410
H       -0.4583459077    2.1029138578    0.5132275894
C        2.0013494332   -0.2117859173   -1.5534766767
H        2.7980013663   -0.1963583132   -2.2746709195
$end

$rem
method                b3lyp
basis                 6-31+g(d,p)
unrestricted          true
symmetry              off
sym_ignore            true
incdft                false
incfock               0
scf_convergence       8
thresh                14
jobtype               opt
scf_guess             read
scf_algorithm         diis
max_scf_cycles        100
geom_opt_max_cycles   300
$end

