$molecule
0 2
C        1.5317255290    0.2376008110   -0.7058510518
C       -0.2661708968   -1.2894039169    0.0255619877
C       -1.4974192795   -1.1576099233    0.6166321554
C       -1.7179380266    0.2386753642    0.8308818696
C       -0.6150406583    0.9095371783    0.3636120392
N        0.2783286197   -0.0241192553   -0.1324488425
H        2.0513695093   -0.6709919295   -1.0219191142
H        0.2800769561   -2.1626205416   -0.3019132956
H       -2.1681105839   -1.9672948660    0.8706713154
H       -2.5907345715    0.6946207048    1.2788532861
H       -0.3732155450    1.9614147827    0.3314674983
C        2.0834008902    1.4231670794   -0.8718891831
H        3.0037280572    1.8070245123   -1.2836586644
$end

$rem
method                b3lyp
basis                 6-31g(d)
unrestricted          true
symmetry              off
sym_ignore            true
incdft                false
incfock               0
scf_convergence       8
thresh                14
jobtype               opt
scf_guess             core
scf_guess_mix         5
scf_algorithm         diis
max_scf_cycles        100
geom_opt_max_cycles   300
$end

