$molecule
0 2
C        1.5274819430    0.6164978298   -0.4609263992
C        0.1637743143   -0.9918618398    0.1782326539
C       -1.2444471552   -1.0214135441    0.2321067793
C       -1.6893703191    0.2843323370    0.5736893981
C       -0.5827810601    1.0915903181    0.7432211409
N        0.5751960187    0.3322982669    0.5771327680
H        2.1856546774    1.4796601691   -0.4011169159
H        0.8071303917   -1.8269028672    0.4304555562
H       -1.8635983016   -1.8980535425    0.0976529761
H       -2.7175190008    0.5939976937    0.7123091589
H       -0.5194719889    2.1565481259    0.9184615217
C        1.3787127891   -0.3675397618   -1.3437596245
H        1.9323579513   -0.6878615021   -2.2219982755
$end

$rem
method                b3lyp
basis                 6-31+g(d,p)
unrestricted          true
symmetry              off
sym_ignore            true
incdft                false
incfock               0
scf_convergence       8
thresh                14
jobtype               sp
scf_guess             read
scf_algorithm         diis
max_scf_cycles        100
$end

