$molecule
0 2
C        1.5650218825    0.6261808337   -0.3924519307
C       -0.0187843361   -1.0613368149   -0.4313665440
C       -1.1518050304   -0.9704753334    0.3427699214
C       -1.6920230221    0.2594126296    0.7560827256
C       -0.7424204607    1.3132333662    0.5597791731
N        0.3999731495    0.8210763411    0.2741985528
H        2.4795259045    1.0613257086    0.0063376464
H        0.5753383547   -1.9825358805   -0.5038920963
H       -1.6354254658   -1.9117319738    0.6601866457
H       -2.6520048374    0.4256135093    1.2417782840
H       -0.9689327807    2.3794864227    0.5867541948
C        1.5196081317   -0.4637797627   -1.1565894860
H        2.2750487701   -0.7351773627   -1.9081263487
$end

$rem
method                b3lyp
basis                 6-31g(d)
unrestricted          true
symmetry              off
sym_ignore            true
incdft                false
incfock               0
scf_convergence       8
thresh                14
jobtype               freq
scf_guess             read
scf_algorithm         diis
max_scf_cycles        100
$end

