$molecule
0 2
C        1.5262957913    0.6136739264   -0.4650169551
C        0.1600737586   -0.9909179551    0.1758882791
C       -1.2457316191   -1.0203329504    0.2327119329
C       -1.6897314264    0.2845435271    0.5748029694
C       -0.5837948086    1.0891698906    0.7415359908
N        0.5739651281    0.3313355522    0.5752743947
H        2.1861888103    1.4759968593   -0.3973042306
H        0.8036727333   -1.8256845664    0.4301929459
H       -1.8653877841   -1.8982966683    0.1053484984
H       -2.7180973974    0.5935213276    0.7178410443
H       -0.5181794239    2.1551783193    0.9130901090
C        1.3784261887   -0.3672362114   -1.3475018027
H        1.9454203091   -0.6796593679   -2.2214024380
$end

$rem
method                b3lyp
basis                 6-31+g(d,p)
unrestricted          true
symmetry              off
sym_ignore            true
incdft                false
incfock               0
scf_convergence       8
thresh                14
jobtype               sp
scf_guess             core
scf_guess_mix         5
scf_algorithm         diis
max_scf_cycles        100
$end

