$molecule
0 2
C        1.5302432459    0.3168656677   -0.2498989377
C        0.5997421009   -0.9048222158   -0.1153124090
C       -0.4126286376   -0.4434815996   -1.1697675340
C       -0.9867633594    0.4908055767    0.8423491256
C       -0.5652962661    0.9461798030   -0.5633453307
N        0.8870956888    1.3924858918   -0.4985593091
H        2.6111962129    0.2954898233   -0.1280808732
H        1.0527729940   -1.8927768894   -0.1861997360
H       -1.2492063221   -1.0577059784   -1.4967553313
H       -1.7017750516    1.0036623626    1.4743967631
H       -1.1918517816    1.6898851304   -1.0515032301
C       -0.2842204656   -0.6230851325    1.1170845698
H       -0.2893083586   -1.2135024400    2.0255922326
$end

$rem
method                b3lyp
basis                 6-31+g(d,p)
unrestricted          true
symmetry              off
sym_ignore            true
incdft                false
incfock               0
scf_convergence       6
thresh                14
jobtype               sp
scf_guess             read
scf_algorithm         diis
max_scf_cycles        100
stability_analysis    true
max_cis_cycles        100
cis_n_roots           4
$end

