$molecule
0 2
C        1.5549393903    0.2368494728   -0.2652312029
C        0.5819959154   -0.9242843466   -0.0909642628
C       -0.7121587794   -0.3539373094   -0.7783766174
C       -1.1067708511    0.2234280744    0.6021820470
C       -0.4363743445    1.0885426123   -0.5616803363
N        0.9750236506    1.3636032091   -0.4788665534
H        2.6280514920    0.1684324271   -0.0992649870
H        0.9527640279   -1.9293160977   -0.2993686885
H       -1.3373280643   -0.8254781560   -1.5296687978
H       -2.0714229759    0.5442240930    0.9805638926
H       -1.0758456831    1.8613122653   -0.9736230084
C       -0.1296120135   -0.6503588609    1.2320088992
H        0.1767382350   -0.8030173832    2.2622896155
$end

$rem
method                b3lyp
basis                 6-31+g(d,p)
unrestricted          true
symmetry              off
sym_ignore            true
incdft                false
incfock               0
scf_convergence       8
thresh                14
jobtype               sp
scf_guess             read
scf_algorithm         diis
max_scf_cycles        100
scf_final_print       1
$end

