$molecule
0 2
C        1.5486951731    0.2442336635   -0.2494075832
C        0.5832877847   -0.9254885455   -0.0949144588
C       -0.7096484807   -0.3596107883   -0.7855341012
C       -1.1193955337    0.1992909432    0.5904615686
C       -0.4422521773    1.0835525612   -0.5517996318
N        0.9671171309    1.3696570034   -0.4538244963
H        2.6208252181    0.1780447767   -0.0708608150
H        0.9605783932   -1.9279423739   -0.3083543462
H       -1.3195292186   -0.8226233496   -1.5554190234
H       -2.0921367155    0.5063234239    0.9619766907
H       -1.0832887086    1.8560368313   -0.9641885398
C       -0.1340248975   -0.6634536071    1.2281084250
H        0.2197720324   -0.7380205390    2.2537563110
****
C        1.6732083198    0.3588634606   -0.4779431527
C        1.0553283678   -0.9014998133   -0.4884873920
C       -0.4216372418   -0.6971985856   -0.4136870369
C       -1.0939311685    0.7169645018    1.0184265320
C       -0.4973235177    0.8810806303   -0.3797794139
N        0.8621236733    1.4099817808   -0.4182798464
H        2.7508422652    0.5162541656   -0.4914102351
H        1.5681936566   -1.8568933619   -0.5056117356
H       -1.0039451140   -1.2408350884   -1.1691892878
H       -1.3993374503    1.4511203217    1.7579520969
H       -1.1343031880    1.3811112412   -1.1195677630
C       -1.0442430042   -0.6192119191    0.9905554207
H       -1.3149755984   -1.3997373337    1.6970218136
$end

$rem
method                b3lyp
basis                 6-31g(d)
unrestricted          true
symmetry              off
sym_ignore            true
incdft                false
incfock               0
scf_convergence       8
thresh                14
jobtype               fsm
scf_guess             core
scf_guess_mix         5
scf_algorithm         diis
max_scf_cycles        100
fsm_nnode             21
fsm_ngrad             6
fsm_mode              2
fsm_opt_mode          2
$end

