$molecule
0 2
C        1.5472061022    0.2800652443   -0.2862040863
C        0.6018095335   -0.9085822596   -0.0935878209
C       -0.5979932680   -0.4056680691   -0.9271138246
C       -1.0219831915    0.3781443506    0.7188235532
C       -0.4879944911    1.0310832966   -0.5559276323
N        0.9369956081    1.3865071719   -0.5094835231
H        2.6240597982    0.2394188089   -0.1301715307
H        1.0034005867   -1.9120874673   -0.2366437791
H       -1.3041684837   -0.9403965751   -1.5465843774
H       -1.9405892945    0.7301172113    1.1823691791
H       -1.1364718226    1.7728025567   -1.0154457198
C       -0.1506101745   -0.6084357655    1.2012561475
H       -0.0833598323   -1.0680076858    2.1780899358
$end

$rem
method                b3lyp
basis                 6-31+g(d,p)
unrestricted          true
symmetry              off
sym_ignore            true
incdft                false
incfock               0
scf_convergence       8
thresh                14
jobtype               freq
scf_guess             read
scf_algorithm         diis
max_scf_cycles        100
$end

