$molecule
0 2
C        1.5583654825    0.3155499394   -0.3012951530
C        0.6527588157   -0.9035715320   -0.1027010661
C       -0.6118307096   -0.4233815181   -0.8157790109
C       -1.0328212448    0.3948041179    0.7194191375
C       -0.4810323184    1.0308415698   -0.5593056626
N        0.9264053449    1.4090220359   -0.5168975280
H        2.6412788445    0.3046859935   -0.1957210126
H        1.1144699778   -1.8751780942   -0.3099955817
H       -1.2768257090   -1.0083934510   -1.4379233267
H       -1.8285754563    0.9157714794    1.2615587364
H       -1.1380020775    1.7083064645   -1.0994485217
C       -0.1922190193   -0.6298491046    1.2281217383
H       -0.3416708599   -1.2636470826    2.1093437724
$end

$rem
method                b3lyp
basis                 6-31g(d)
unrestricted          true
symmetry              off
sym_ignore            true
incdft                false
incfock               0
scf_convergence       8
thresh                14
jobtype               freq
scf_guess             read
scf_algorithm         diis
max_scf_cycles        100
$end

