$molecule
0 2
C        1.3652822579    0.3834213914    0.2014157343
C        0.8003240187   -0.9247048838   -0.2686708013
C       -0.5530188979   -0.8607943198   -0.8904791226
C       -1.0699545957    0.3334589931   -0.0203286709
C       -0.3947767858    1.5993757263   -0.3760626621
N        0.9009006467    1.6053830787   -0.2026901008
H        2.2793846737    0.3335791436    0.7846045511
H        1.4069442906   -1.8234083257   -0.2535264597
H       -1.1227664222   -1.7891339741   -0.9185177125
H       -2.1353459602    0.3579261561    0.1981097026
H       -0.9119552406    2.4595848906   -0.7897892887
C       -0.1420278808   -0.5344485533    0.8375177073
H       -0.4481731133   -1.1602914440    1.6733197437
$end

$rem
method                b3lyp
basis                 6-31+g(d,p)
unrestricted          true
symmetry              off
sym_ignore            true
incdft                false
incfock               0
scf_convergence       8
thresh                14
jobtype               rpath
scf_guess             core
scf_guess_mix         5
scf_algorithm         diis
max_scf_cycles        100
rpath_direction       1
rpath_tol_displacement 1000
rpath_max_cycles      50
geom_opt_max_cycles   300
geom_opt_hessian      read
$end

