$molecule
0 2
C        1.3781787822    0.3665340866    0.2096456921
C        0.7440746719   -0.9496988933   -0.1871485365
C       -0.5388534304   -0.8253852666   -0.9275363321
C       -1.0715597868    0.2839708887    0.0302503774
C       -0.4076348478    1.5583758913   -0.3702666285
N        0.8781593919    1.5705533774   -0.2404746576
H        2.3484839628    0.3690791900    0.6963811538
H        1.3646994944   -1.8424852020   -0.1544886028
H       -1.1184544910   -1.6721771973   -1.2692508370
H       -2.1390566551    0.3319241469    0.2475261672
H       -0.9324013946    2.4017897524   -0.8140687906
C       -0.1168865512   -0.5130339190    0.9431450424
H       -0.4139321551   -1.0994989759    1.8111885729
$end

$rem
method                b3lyp
basis                 6-31g(d)
unrestricted          true
symmetry              off
sym_ignore            true
incdft                false
incfock               0
scf_convergence       8
thresh                14
jobtype               sp
scf_guess             core
scf_guess_mix         5
scf_algorithm         diis
max_scf_cycles        100
$end

