$molecule
0 2
C        1.5388313197    0.3789259007   -0.3299948374
C        0.7235392996   -0.8602288689   -0.0499342522
C       -0.5139097215   -0.6174209189   -0.8537951837
C       -0.9428960074    0.6608279747    0.8701247978
C       -0.6009942705    0.9063957213   -0.5955556917
N        0.8195038946    1.3844860437   -0.6684043318
H        2.6174278452    0.4524857309   -0.2082866511
H        1.1920590016   -1.8411206606   -0.0292807731
H       -1.1550805908   -1.2992740126   -1.3932209772
H       -1.5753212047    1.2171705622    1.5466366547
H       -1.2738286022    1.5259001449   -1.1854798125
C       -0.3495880832   -0.6015511262    1.0152352154
H       -0.5406827729   -1.3393654345    1.7898682449
$end

$rem
method                b3lyp
basis                 6-31+g(d,p)
unrestricted          true
symmetry              off
sym_ignore            true
incdft                false
incfock               0
scf_convergence       8
thresh                14
jobtype               sp
scf_guess             read
scf_algorithm         diis
max_scf_cycles        100
scf_final_print       1
$end

