$molecule
0 2
C        1.5186035912    0.3483820933   -0.2803863778
C        0.6272379572   -0.8913170642   -0.0668529239
C       -0.4069351032   -0.5259029090   -1.1367515478
C       -0.9951853727    0.5116319481    0.8184219776
C       -0.5953048619    0.8937365348   -0.6164984204
N        0.8415205726    1.3867291132   -0.5898735946
H        2.6000202719    0.3685205246   -0.1642559744
H        1.1114359062   -1.8671197374   -0.0812541990
H       -1.2281252759   -1.1849417420   -1.4112369089
H       -1.7150591909    1.0458316081    1.4276161304
H       -1.2491066810    1.5856413769   -1.1432615548
C       -0.2592928466   -0.5639162483    1.1532175467
H       -0.2498089669   -1.1072754984    2.0911158473
$end

$rem
method                b3lyp
basis                 6-31+g(d,p)
unrestricted          true
symmetry              off
sym_ignore            true
incdft                false
incfock               0
scf_convergence       6
thresh                14
jobtype               sp
scf_guess             read
scf_algorithm         diis
max_scf_cycles        100
stability_analysis    true
max_cis_cycles        100
cis_n_roots           4
$end

