$molecule
0 2
C        1.5285891860    0.4169021920   -0.3204573700
C        0.7924152391   -0.8449724623   -0.0506289343
C       -0.5509933966   -0.6793166564   -0.6647621649
C       -0.9892610401    0.7033440775    0.8720753215
C       -0.6208521583    0.8977831461   -0.5916639941
N        0.7765302450    1.4008668700   -0.6626684498
H        2.6046797791    0.5324697333   -0.2064040903
H        1.2763536537   -1.8147353753    0.0124492597
H       -1.0661787995   -1.3583167354   -1.3356878931
H       -1.2653748674    1.4007770027    1.6548888164
H       -1.2927191981    1.4613109497   -1.2397330974
C       -0.5218553926   -0.6757682741    0.8682179079
H       -0.7322731416   -1.4731134033    1.5722870930
$end

$rem
method                b3lyp
basis                 6-31+g(d,p)
unrestricted          true
symmetry              off
sym_ignore            true
incdft                false
incfock               0
scf_convergence       8
thresh                14
jobtype               opt
scf_guess             read
scf_algorithm         diis
max_scf_cycles        100
geom_opt_max_cycles   300
$end

