$molecule
0 2
C        1.5704420212    0.3534991138   -0.3749217232
C        0.7839699735   -0.8593715991   -0.0743412597
C       -0.4177648196   -0.7293816510   -0.9613536173
C       -1.0022496661    0.5992226441    0.8119693617
C       -0.5248644479    1.0770219030   -0.4967115632
N        0.8521267963    1.3925154898   -0.6273094286
H        2.6500705813    0.3749393566   -0.5568802738
H        1.3979501211   -1.7798086592   -0.1744263919
H       -1.0748693472   -1.6079504791   -1.0275324497
H       -1.8712178175    1.0607399705    1.3064144002
H       -1.1055124946    1.9013113160   -0.9165708912
C       -0.4224097634   -0.5824441210    1.1241518971
H       -0.8966110296   -1.2330622277    1.8754243415
$end

$rem
method                b3lyp
basis                 6-31g(d)
unrestricted          true
symmetry              off
sym_ignore            true
incdft                false
incfock               0
scf_convergence       8
thresh                14
jobtype               freq
scf_guess             read
scf_algorithm         diis
max_scf_cycles        100
$end

