$molecule
0 2
C        1.5354393401    0.3832944779   -0.3256694458
C        0.7245705370   -0.8602902258   -0.0513494538
C       -0.5067711270   -0.6177194884   -0.8644781985
C       -0.9515981836    0.6536513395    0.8625448319
C       -0.6016824958    0.9029894543   -0.5997538397
N        0.8179073632    1.3885105789   -0.6627838579
H        2.6140108667    0.4590111391   -0.1968424699
H        1.1961026439   -1.8403808695   -0.0300431970
H       -1.1684291520   -1.3021878851   -1.3745517282
H       -1.5498146592    1.2281879579    1.5559056306
H       -1.2730329984    1.5217166439   -1.1943562954
C       -0.3537749900   -0.6050373942    1.0073421467
H       -0.5438670375   -1.3445146718    1.7819482791
$end

$rem
method                b3lyp
basis                 6-31+g(d,p)
unrestricted          true
symmetry              off
sym_ignore            true
incdft                false
incfock               0
scf_convergence       8
thresh                14
jobtype               freq
scf_guess             read
scf_algorithm         diis
max_scf_cycles        100
$end

