$molecule
0 2
C        1.7125492877   -0.2171770291    0.0853630181
C        2.2577630633   -0.0515330580   -1.2581234100
C        1.1840363016    0.2401955362   -2.0494908952
C       -2.2801861944   -0.1192068025    2.0740882323
C        0.0325999134    0.2387920050   -1.1525201134
N        0.3768368486   -0.0380434781    0.1217761585
H        2.2677245431   -0.4568277245    0.9861238013
H        3.2976081498   -0.1460701029   -1.5410137595
H        1.1634676085    0.4356118427   -3.1131602787
H       -1.3186732356   -0.1187556447    1.5903074412
H       -1.0010726338    0.4296956249   -1.4214999176
C       -3.3679886086   -0.1034808259    2.6035784805
H       -4.3246650436   -0.0932003432    3.0745712426
$end

$rem
method                b3lyp
basis                 6-31+g(d,p)
unrestricted          true
symmetry              off
sym_ignore            true
incdft                false
incfock               0
scf_convergence       8
thresh                14
jobtype               sp
scf_guess             core
scf_guess_mix         5
scf_algorithm         diis
max_scf_cycles        100
$end

