$molecule
0 2
C        1.9427729284    0.1637899110   -0.5821900459
C        1.1171349476   -0.7253102723   -0.0033664819
C       -0.2925976564   -0.2259724162   -0.2058718949
C       -1.0517695021    0.0429179530    1.0946638986
C       -0.0023613579    1.0449118898   -0.9825827732
N        1.2506552692    1.2575780343   -1.1896762431
H        3.0249281025    0.1413379324   -0.6406777182
H        1.3786042338   -1.6325201048    0.5262072608
H       -0.8806735455   -0.9154780070   -0.8291406089
H       -0.5418363338    0.7123688122    1.7898333208
H       -0.7713822806    1.7302618721   -1.3318364409
C       -2.2229689497   -0.4639660931    1.4013896000
H       -2.9505058560   -1.1299195115    0.9532481269
****
C        1.4071789816   -0.4164944335    0.0531609426
C        2.2315945606   -0.2206123993   -1.1333816918
C        1.4143555753    0.3811930082   -2.0437402409
C       -2.3477870099   -0.0975729087    2.0274876250
C        0.1291795832    0.5257410040   -1.3693325258
N        0.1500592576    0.0399128552   -0.1132167952
H        1.7158336443   -0.8719917312    0.9885383119
H        3.2709434078   -0.5028720565   -1.2406071187
H        1.6441299309    0.6942334427   -3.0537466685
H       -1.5376513072   -0.0216424164    1.3219415923
H       -0.7747147551    0.9659413375   -1.7792270059
C       -3.2521559103   -0.1955064323    2.8203229797
H       -4.0509659586   -0.2803292698    3.5218005952
$end

$rem
method                b3lyp
basis                 6-31g(d)
unrestricted          true
symmetry              off
sym_ignore            true
incdft                false
incfock               0
scf_convergence       8
thresh                14
jobtype               fsm
scf_algorithm         rca_diis
thresh_rca_switch     4
max_scf_cycles        300
fsm_nnode             21
fsm_ngrad             6
fsm_mode              2
fsm_opt_mode          2
$end

