$molecule
0 2
C        1.9381086319    0.2421515692   -0.4943317505
C        1.1126372135   -0.7271466435   -0.0538879285
C       -0.3009202521   -0.2428291021   -0.2667667980
C       -1.0603105823   -0.0490476609    1.0516257632
C       -0.0184269089    1.0929777895   -0.9283998087
N        1.2375483550    1.3629581273   -1.0389285092
H        3.0213608496    0.2651299074   -0.4774009689
H        1.3796893522   -1.6715787123    0.4024854251
H       -0.8786044785   -0.8968420050   -0.9348349616
H       -0.5285813328    0.5579752751    1.7859554578
H       -0.7911484074    1.7827354485   -1.2585611253
C       -2.2450655187   -0.5402014963    1.3342427405
H       -3.0123513195   -1.1493351183    0.8771785276
$end

$rem
method                b3lyp
basis                 6-31+g(d,p)
unrestricted          true
symmetry              off
sym_ignore            true
incdft                false
incfock               0
scf_convergence       8
thresh                14
jobtype               opt
scf_guess             read
scf_algorithm         diis
max_scf_cycles        100
geom_opt_max_cycles   300
$end

