$molecule
0 2
C        1.9613901797    0.3775932710   -0.3425477418
C        1.2035788550   -0.8555143432   -0.4516457862
C       -0.0082700892   -0.4864881348   -0.9609860460
C       -1.3800235742    0.1666344342    1.7026737693
C        0.0670924953    0.9689889507   -1.1274329949
N        1.2540076768    1.4635686569   -0.7486227952
H        2.9824077282    0.4837140167    0.0084614651
H        1.5327533756   -1.8411856820   -0.1517310754
H       -0.8750703400   -1.1026790741   -1.1536399618
H       -0.4686546880    0.7081842932    1.8240535225
H       -0.7245316209    1.6193420147   -1.4850230490
C       -2.4002287205   -0.4578195060    1.5292088503
H       -3.2905156766   -1.0173915226    1.3556079048
$end

$rem
method                b3lyp
basis                 6-31+g(d,p)
unrestricted          true
symmetry              off
sym_ignore            true
incdft                false
incfock               0
scf_convergence       8
thresh                14
jobtype               opt
scf_guess             read
scf_algorithm         diis
max_scf_cycles        100
geom_opt_max_cycles   300
$end

