$molecule
0 2
C        1.9428671549    0.1644130201   -0.5816694291
C        1.1171166541   -0.7250166629   -0.0036560302
C       -0.2927840060   -0.2256916522   -0.2056906425
C       -1.0511201092    0.0417131585    1.0956345203
C       -0.0024048681    1.0452593303   -0.9825406061
N        1.2505041428    1.2579809599   -1.1897213086
H        3.0249701578    0.1420497572   -0.6411949128
H        1.3785570708   -1.6314259533    0.5273052169
H       -0.8804660219   -0.9148225955   -0.8298881231
H       -0.5399779417    0.7085944320    1.7925776609
H       -0.7717201054    1.7284287703   -1.3355947938
C       -2.2231320458   -0.4639088046    1.4017476031
H       -2.9524100829   -1.1275737599    0.9526908452
$end

$rem
method                b3lyp
basis                 6-31g(d)
unrestricted          true
symmetry              off
sym_ignore            true
incdft                false
incfock               0
scf_convergence       8
thresh                14
jobtype               opt
scf_guess             core
scf_guess_mix         5
scf_algorithm         diis
max_scf_cycles        100
geom_opt_max_cycles   300
$end

