$molecule
0 2
C        1.9141397488    0.3228992214   -0.3222140275
C        1.1377290444   -0.8080480643   -0.2431537818
C       -0.1835494367   -0.3963603124   -0.6343481699
C       -1.1193784953    0.0301946131    1.1969463166
C       -0.0184805764    1.0244741536   -1.0077639561
N        1.1973122050    1.4486877280   -0.7857587008
H        2.9665887570    0.4287378430   -0.0881005262
H        1.4396850341   -1.7971784610    0.0723039546
H       -0.9471107119   -1.0473971265   -1.0402204334
H       -0.3367311861    0.6321773235    1.6228460831
H       -0.8029786575    1.6788066326   -1.3730686420
C       -2.2437898771   -0.4705950300    1.3740862164
H       -3.1495002484   -1.0194511505    1.2268217294
$end

$rem
method                b3lyp
basis                 6-31+g(d,p)
unrestricted          true
symmetry              off
sym_ignore            true
incdft                false
incfock               0
scf_convergence       8
thresh                14
jobtype               freq
scf_guess             read
scf_algorithm         diis
max_scf_cycles        100
$end

