$molecule
0 2
C        1.5416823520    0.4345515156   -0.3547560222
C        0.8414183369   -0.8018218203    0.0679501629
C       -0.5894582632   -1.0218467898   -0.3929946855
C       -1.1159098153    0.3149951241    0.1092592345
C       -0.4288241129    1.5408520214   -0.3633114267
N        0.8870633713    1.5749436167   -0.5726297064
H        2.6221306185    0.4385102453   -0.4781805896
H        1.4504309340   -1.6944704329    0.1969641511
H       -1.0776959209   -1.8591588892   -0.8703581753
H       -2.1885397965    0.3845228938    0.2791743495
H       -0.9984778444    2.4436848592   -0.5709460682
C       -0.3513303913   -0.6485901863    1.0006492974
H       -0.5924894688   -1.1061721571    1.9491794791
$end

$rem
method                b3lyp
basis                 6-31+g(d,p)
unrestricted          true
symmetry              off
sym_ignore            true
incdft                false
incfock               0
scf_convergence       8
thresh                14
jobtype               sp
scf_guess             read
scf_algorithm         diis
max_scf_cycles        100
scf_final_print       1
$end

