$molecule
0 2
C        1.5360253282    0.4300916143   -0.3801114367
C        0.8437544071   -0.7974397119    0.0798822764
C       -0.5862466520   -1.0274836295   -0.3820258608
C       -1.1170077234    0.3117676513    0.1015896275
C       -0.4276996931    1.5419333912   -0.3564318933
N        0.8835071537    1.5722516612   -0.5869184177
H        2.6090857182    0.4195212083   -0.5610841245
H        1.4550905977   -1.6868571385    0.2237080226
H       -1.0696760219   -1.8716988620   -0.8536588081
H       -2.1913568186    0.3771031146    0.2651805570
H       -0.9909250331    2.4596109741   -0.5150379808
C       -0.3510240979   -0.6406732085    1.0055382051
H       -0.5935271654   -1.0881270641    1.9593698327
****
C        1.3037117696    0.3429061191    0.2326423553
C        0.6300299369   -0.9935492803   -0.1372354368
C       -0.6736796742   -0.5172236510   -0.8252854838
C       -1.0840726001    0.1856998610    0.4387794199
C       -0.5406826704    1.0159225167   -0.7395523731
N        0.7980227308    1.4202519984   -0.5304976148
H        2.3392590675    0.3675493204    0.5538056554
H        1.1673337259   -1.9233944629   -0.2864938657
H       -1.2671687284   -1.0350229177   -1.5704380888
H       -2.0630809310    0.3274684150    0.8826831820
H       -1.2001959980    1.6593576094   -1.3114992510
C        0.2204918052   -0.2904092488    1.1267232381
H        0.3700315660   -0.5595562790    2.1663682633
$end

$rem
method                b3lyp
basis                 6-31g(d)
unrestricted          true
symmetry              off
sym_ignore            true
incdft                false
incfock               0
scf_convergence       8
thresh                14
jobtype               fsm
scf_guess             core
scf_guess_mix         5
scf_algorithm         diis_gdm
max_scf_cycles        300
fsm_nnode             21
fsm_ngrad             6
fsm_mode              2
fsm_opt_mode          2
$end

