$molecule
0 2
C        1.3034339149    0.3431468119    0.2333440431
C        0.6301757149   -0.9935974876   -0.1375702383
C       -0.6739377544   -0.5174207747   -0.8250621568
C       -1.0837971411    0.1863199825    0.4387364016
C       -0.5405569156    1.0158562494   -0.7398804768
N        0.7980859836    1.4202014911   -0.5305790376
H        2.3389958946    0.3676837708    0.5544935681
H        1.1684079390   -1.9228026975   -0.2873799363
H       -1.2682371361   -1.0353839584   -1.5694244973
H       -2.0627028675    0.3281351243    0.8828650657
H       -1.1999773692    1.6590239068   -1.3122665600
C        0.2205489967   -0.2907708487    1.1265501779
H        0.3695607401   -0.5603915698    2.1661736469
$end

$rem
method                b3lyp
basis                 6-31g(d)
unrestricted          true
symmetry              off
sym_ignore            true
incdft                false
incfock               0
scf_convergence       8
thresh                14
jobtype               opt
scf_guess             core
scf_guess_mix         5
scf_algorithm         diis
max_scf_cycles        100
geom_opt_max_cycles   300
$end

