$molecule
0 2
C        1.3784042585    0.4003618997   -0.0701552906
C        0.7575017867   -0.9520031978   -0.2761066785
C       -0.6763645901   -0.9526091268   -0.6954073333
C       -1.0621059945    0.3345912484    0.1117951026
C       -0.4664680365    1.5458417908   -0.4916912016
N        0.8386749427    1.5664762950   -0.5316862548
H        2.3746140752    0.4143112193    0.3620880771
H        1.3714034475   -1.8463586851   -0.2497419666
H       -1.2277271580   -1.8743211902   -0.5076377922
H       -2.0808819008    0.3919869727    0.4907483178
H       -1.0544990317    2.3529368460   -0.9197208008
C       -0.0028153191   -0.4325902818    0.9078303581
H       -0.1717785139   -0.9574272963    1.8465188847
$end

$rem
method                b3lyp
basis                 6-31g(d)
unrestricted          true
symmetry              off
sym_ignore            true
incdft                false
incfock               0
scf_convergence       6
thresh                14
jobtype               sp
scf_guess             read
scf_algorithm         diis
max_scf_cycles        100
stability_analysis    true
max_cis_cycles        100
cis_n_roots           4
$end

