$molecule
0 2
C        1.4418909664    0.3939517949   -0.1068840294
C        0.6999194144   -0.9402781619   -0.1232743720
C       -0.6709638185   -0.8575397016   -0.7111046834
C       -1.0540281985    0.2712267918    0.2906271977
C       -0.4835563495    1.4440935063   -0.4782459635
N        0.8102773706    1.4830806330   -0.5755299593
H        2.4595428009    0.4635960344    0.2655097235
H        1.3111486960   -1.8399422836   -0.1409522319
H       -1.2917254470   -1.6047894461   -1.1786700651
H       -2.0727185995    0.4019969906    0.6611208819
H       -1.1177718402    2.0823287380   -1.0917887760
C        0.0096898300   -0.4277794557    1.0898442361
H       -0.0637468591   -0.8787489463    2.0761814633
$end

$rem
method                b3lyp
basis                 6-31g(d)
unrestricted          true
symmetry              off
sym_ignore            true
incdft                false
incfock               0
scf_convergence       8
thresh                14
jobtype               sp
scf_guess             core
scf_guess_mix         5
scf_algorithm         diis
max_scf_cycles        100
$end

