$molecule
0 2
C        0.8009712414   -0.4961334159   -0.0259176100
C        2.2696621220   -0.7635656895    0.1884726984
C        1.5823832253   -1.7642811005   -0.2614852715
C       -1.6790656886    1.1171565643   -0.0266559691
C       -1.1212553819    0.2917622329    1.0780419992
N       -0.0549043236   -0.4181804156    1.1114898170
H        0.4826926407    0.1086500725   -0.8908448211
H        3.1944874840   -0.3305268420    0.5360657065
H        1.5013018508   -2.7944984829   -0.5709554102
H       -2.6146580412    1.6267137121    0.2357961033
H       -1.7210312327    0.3005128704    1.9908393519
C       -1.1789453578    1.2852077173   -1.2387220383
H       -1.4616385380    1.8371827775   -2.1261245562
$end

$rem
method                b3lyp
basis                 6-31+g(d,p)
unrestricted          true
symmetry              off
sym_ignore            true
incdft                false
incfock               0
scf_convergence       6
thresh                14
jobtype               sp
scf_guess             read
scf_algorithm         diis
max_scf_cycles        100
stability_analysis    true
max_cis_cycles        100
cis_n_roots           4
$end

