$molecule
0 2
C        0.7939399765   -0.4589053702   -0.1041351381
C        2.2566726772   -0.7409352510    0.1522431912
C        1.5713748105   -1.7403958364   -0.2994955608
C       -1.8168176786    1.1894388859    0.0265806197
C       -1.1429801940    0.3189736438    1.0431670082
N       -0.0696652783   -0.3755563555    1.0245764159
H        0.5144685049    0.1305154731   -0.9803362514
H        3.1731364385   -0.3162830460    0.5312896027
H        1.4841054353   -2.7786817248   -0.5793103761
H       -2.7314911636    1.6309554285    0.4351551956
H       -1.7011474855    0.2865033940    1.9824950401
C       -1.5248284489    1.5063490361   -1.2212353580
H       -0.8067675940    1.3480217226   -2.0109943889
$end

$rem
method                b3lyp
basis                 6-31+g(d,p)
unrestricted          true
symmetry              off
sym_ignore            true
incdft                false
incfock               0
scf_convergence       8
thresh                14
jobtype               sp
scf_guess             read
scf_algorithm         diis
max_scf_cycles        100
scf_final_print       1
$end

