$molecule
0 2
C        0.0319485283   -0.5337668699   -0.1425857137
C        1.5576897038   -0.4984004590   -0.0351246496
C        2.3712215611   -1.3289449842   -0.6414729201
C       -1.3589208823    1.2881309610    0.1043302615
C       -1.3434970242    0.4243684953    1.2948508665
N       -0.5759230120   -0.6083630507    1.1970553578
H       -0.2666323971   -1.4323160383   -0.6995334164
H        1.9458640397    0.3020573530    0.5969548650
H        2.2983203942   -2.1875572535   -1.2977030829
H       -1.9365281603    2.1984881982   -0.0106079745
H       -1.9199418631    0.6083314139    2.2007869336
C       -0.5297946791    0.7130034740   -0.7854529919
H       -0.2738062086    1.0549687600   -1.7814975357
****
C        0.6333592587   -0.6445806743   -0.1615282847
C        2.1383341996   -0.6036047416   -0.0746437542
C        1.6208029646   -1.7847042792   -0.1710580891
C       -1.8116800265    1.1419425611   -0.0116907800
C       -1.1690844304    0.3026148212    1.0477225197
N       -0.1297826265   -0.4378224226    1.0301915795
H        0.1423870256   -0.3573785005   -1.0970880473
H        2.9929328068    0.0453271447    0.0497581915
H        1.7232747441   -2.8591597996   -0.1967569671
H       -2.8699380501    1.3365219622    0.1878635146
H       -1.7085175368    0.3443476788    2.0000063706
C       -1.2675092561    1.7098837494   -1.0699511351
H       -0.2945790729    1.8066125004   -1.5328251183
$end

$rem
method                b3lyp
basis                 6-31g(d)
unrestricted          true
symmetry              off
sym_ignore            true
incdft                false
incfock               0
scf_convergence       8
thresh                14
jobtype               fsm
scf_guess             core
scf_guess_mix         5
scf_algorithm         diis
max_scf_cycles        100
fsm_nnode             21
fsm_ngrad             6
fsm_mode              2
fsm_opt_mode          2
$end

