$molecule
0 2
C        0.0319714848   -0.5333175667   -0.1427400561
C        1.5576113711   -0.4988355063   -0.0351273078
C        2.3711780219   -1.3299123757   -0.6406536961
C       -1.3603029260    1.2874427662    0.1039385723
C       -1.3430895248    0.4247886342    1.2952133943
N       -0.5766590089   -0.6087100396    1.1965567815
H       -0.2668709717   -1.4316102531   -0.6999986983
H        1.9464765813    0.3017313693    0.5964272419
H        2.2991653582   -2.1878093685   -1.2978372333
H       -1.9380964353    2.1976527738   -0.0111081502
H       -1.9187150676    0.6090736045    2.2016245916
C       -0.5296299095    0.7136112444   -0.7852588237
H       -0.2730389731    1.0558947172   -1.7810366164
$end

$rem
method                b3lyp
basis                 6-31g(d)
unrestricted          true
symmetry              off
sym_ignore            true
incdft                false
incfock               0
scf_convergence       8
thresh                14
jobtype               opt
scf_guess             core
scf_guess_mix         5
scf_algorithm         diis
max_scf_cycles        100
geom_opt_max_cycles   300
$end

