$molecule
0 2
C        0.6361521759   -0.6402014665   -0.1611847363
C        2.1410583663   -0.6065448478   -0.0723411055
C        1.6183799667   -1.7849237975   -0.1723817372
C       -1.8147451428    1.1387689623   -0.0129924155
C       -1.1676833163    0.3044580954    1.0481538219
N       -0.1257894915   -0.4322544217    1.0309754361
H        0.1481540409   -0.3490608421   -1.0971553315
H        2.9981662484    0.0384734305    0.0542579594
H        1.7154736240   -2.8597987232   -0.2004467662
H       -2.8743916844    1.3288367082    0.1855599930
H       -1.7048042684    0.3477168038    2.0016850729
C       -1.2718271235    1.7072839776   -1.0714398701
H       -0.2981433953    1.8072461211   -1.5326903209
$end

$rem
method                b3lyp
basis                 6-31g(d)
unrestricted          true
symmetry              off
sym_ignore            true
incdft                false
incfock               0
scf_convergence       8
thresh                14
jobtype               opt
scf_guess             core
scf_guess_mix         5
scf_algorithm         diis
max_scf_cycles        100
geom_opt_max_cycles   300
$end

