$molecule
0 2
C        0.7848755629   -0.4822174385   -0.0798482646
C        2.2526821648   -0.7502241617    0.1533838645
C        1.5714196860   -1.7537596532   -0.2914879340
C       -1.7712263058    1.1527702996    0.0157412983
C       -1.1359229008    0.2926919098    1.0641550819
N       -0.0675692106   -0.4077497435    1.0608406024
H        0.4818874335    0.1091611892   -0.9507259987
H        3.1747394959   -0.3180092032    0.5122835730
H        1.4956570306   -2.7907261483   -0.5827359762
H       -2.6988555271    1.6154444477    0.3863710622
H       -1.7107659496    0.2761988387    1.9956366413
C       -1.3829046070    1.4034528303   -1.2084303812
H       -1.0576429443    1.5993756393   -2.2061871774
$end

$rem
method                b3lyp
basis                 6-31+g(d,p)
unrestricted          true
symmetry              off
sym_ignore            true
incdft                false
incfock               0
scf_convergence       8
thresh                14
jobtype               freq
scf_guess             read
scf_algorithm         diis
max_scf_cycles        100
$end

