$molecule
0 2
C        0.4626089712   -0.7358276611   -0.1898015025
C        1.9138763224   -0.5068117572   -0.1542609568
C        1.9059120474   -1.7981251474   -0.1467010573
C       -1.6526157571    1.2960540915    0.0835327819
C       -1.2458117703    0.2537268177    1.0877487062
N       -0.2972473702   -0.6070944013    0.9895285086
H       -0.0524924453   -1.0880450298   -1.0858417219
H        2.5595235709    0.3409121928    0.0737927350
H        2.0424273248   -2.8418838773   -0.3388872675
H       -2.5751091271    1.8320024174    0.3147596440
H       -1.8025865445    0.2592810144    2.0322031526
C       -0.9207312344    1.5882413816   -0.9692106382
H       -0.4013800593    1.9539787650   -1.8278659926
$end

$rem
method                b3lyp
basis                 6-31g(d)
unrestricted          true
symmetry              off
sym_ignore            true
incdft                false
incfock               0
scf_convergence       8
thresh                14
jobtype               ts
scf_guess             read
scf_algorithm         diis
max_scf_cycles        100
geom_opt_max_cycles   500
geom_opt_dmax         100
geom_opt_tol_gradient 10
geom_opt_hessian      read
$end

